*SPEF "IEEE 1481-1999"
*DESIGN "bms_master_control_unit_enhanced"
*DATE "Sat Jul  4 19:53:50 2026"
*VENDOR "SYNOPSYS INC"
*PROGRAM "Synopsys Design Compiler cmos"
*VERSION "T-2022.03-SP4"
*DESIGN_FLOW "SYNTHESIS"
*DIVIDER /
*DELIMITER :
*BUS_DELIMITER []
*T_UNIT 1.0 NS
*C_UNIT 0.0010 PF
*R_UNIT 1000.0 KOHM
*L_UNIT 1.0 HENRY

*PORTS

clk I *L 0.000e+00 *S 0.000e+00 0.000e+00 
rst_n I *L 0.000e+00 *S 0.000e+00 0.000e+00 
start_poll I *L 0.000e+00 *S 0.000e+00 0.000e+00 
pack_current\[15\] I *L 0.000e+00 *S 0.000e+00 0.000e+00 
pack_current\[14\] I *L 0.000e+00 *S 0.000e+00 0.000e+00 
pack_current\[13\] I *L 0.000e+00 *S 0.000e+00 0.000e+00 
pack_current\[12\] I *L 0.000e+00 *S 0.000e+00 0.000e+00 
pack_current\[11\] I *L 0.000e+00 *S 0.000e+00 0.000e+00 
pack_current\[10\] I *L 0.000e+00 *S 0.000e+00 0.000e+00 
pack_current\[9\] I *L 0.000e+00 *S 0.000e+00 0.000e+00 
pack_current\[8\] I *L 0.000e+00 *S 0.000e+00 0.000e+00 
pack_current\[7\] I *L 0.000e+00 *S 0.000e+00 0.000e+00 
pack_current\[6\] I *L 0.000e+00 *S 0.000e+00 0.000e+00 
pack_current\[5\] I *L 0.000e+00 *S 0.000e+00 0.000e+00 
pack_current\[4\] I *L 0.000e+00 *S 0.000e+00 0.000e+00 
pack_current\[3\] I *L 0.000e+00 *S 0.000e+00 0.000e+00 
pack_current\[2\] I *L 0.000e+00 *S 0.000e+00 0.000e+00 
lmu0_temp_die\[11\] I *L 0.000e+00 *S 0.000e+00 0.000e+00 
lmu0_temp_die\[10\] I *L 0.000e+00 *S 0.000e+00 0.000e+00 
lmu0_temp_die\[9\] I *L 0.000e+00 *S 0.000e+00 0.000e+00 
lmu0_temp_die\[8\] I *L 0.000e+00 *S 0.000e+00 0.000e+00 
lmu0_temp_die\[7\] I *L 0.000e+00 *S 0.000e+00 0.000e+00 
lmu0_temp_die\[6\] I *L 0.000e+00 *S 0.000e+00 0.000e+00 
lmu0_temp_die\[5\] I *L 0.000e+00 *S 0.000e+00 0.000e+00 
lmu0_temp_die\[4\] I *L 0.000e+00 *S 0.000e+00 0.000e+00 
lmu0_temp_die\[3\] I *L 0.000e+00 *S 0.000e+00 0.000e+00 
lmu0_temp_die\[2\] I *L 0.000e+00 *S 0.000e+00 0.000e+00 
lmu0_temp_die\[1\] I *L 0.000e+00 *S 0.000e+00 0.000e+00 
lmu0_temp_die\[0\] I *L 0.000e+00 *S 0.000e+00 0.000e+00 
lmu1_temp_die\[11\] I *L 0.000e+00 *S 0.000e+00 0.000e+00 
lmu1_temp_die\[10\] I *L 0.000e+00 *S 0.000e+00 0.000e+00 
lmu1_temp_die\[9\] I *L 0.000e+00 *S 0.000e+00 0.000e+00 
lmu1_temp_die\[8\] I *L 0.000e+00 *S 0.000e+00 0.000e+00 
lmu1_temp_die\[7\] I *L 0.000e+00 *S 0.000e+00 0.000e+00 
lmu1_temp_die\[6\] I *L 0.000e+00 *S 0.000e+00 0.000e+00 
lmu1_temp_die\[5\] I *L 0.000e+00 *S 0.000e+00 0.000e+00 
lmu1_temp_die\[4\] I *L 0.000e+00 *S 0.000e+00 0.000e+00 
lmu1_temp_die\[3\] I *L 0.000e+00 *S 0.000e+00 0.000e+00 
lmu1_temp_die\[2\] I *L 0.000e+00 *S 0.000e+00 0.000e+00 
lmu1_temp_die\[1\] I *L 0.000e+00 *S 0.000e+00 0.000e+00 
lmu1_temp_die\[0\] I *L 0.000e+00 *S 0.000e+00 0.000e+00 
lmu2_temp_die\[11\] I *L 0.000e+00 *S 0.000e+00 0.000e+00 
lmu2_temp_die\[10\] I *L 0.000e+00 *S 0.000e+00 0.000e+00 
lmu2_temp_die\[9\] I *L 0.000e+00 *S 0.000e+00 0.000e+00 
lmu2_temp_die\[8\] I *L 0.000e+00 *S 0.000e+00 0.000e+00 
lmu2_temp_die\[7\] I *L 0.000e+00 *S 0.000e+00 0.000e+00 
lmu2_temp_die\[6\] I *L 0.000e+00 *S 0.000e+00 0.000e+00 
lmu2_temp_die\[5\] I *L 0.000e+00 *S 0.000e+00 0.000e+00 
lmu2_temp_die\[4\] I *L 0.000e+00 *S 0.000e+00 0.000e+00 
lmu2_temp_die\[3\] I *L 0.000e+00 *S 0.000e+00 0.000e+00 
lmu2_temp_die\[2\] I *L 0.000e+00 *S 0.000e+00 0.000e+00 
lmu2_temp_die\[1\] I *L 0.000e+00 *S 0.000e+00 0.000e+00 
lmu2_temp_die\[0\] I *L 0.000e+00 *S 0.000e+00 0.000e+00 
lmu0_soc\[15\] I *L 0.000e+00 *S 0.000e+00 0.000e+00 
lmu0_soc\[14\] I *L 0.000e+00 *S 0.000e+00 0.000e+00 
lmu0_soc\[13\] I *L 0.000e+00 *S 0.000e+00 0.000e+00 
lmu0_soc\[12\] I *L 0.000e+00 *S 0.000e+00 0.000e+00 
lmu0_soc\[11\] I *L 0.000e+00 *S 0.000e+00 0.000e+00 
lmu0_soc\[10\] I *L 0.000e+00 *S 0.000e+00 0.000e+00 
lmu0_soc\[9\] I *L 0.000e+00 *S 0.000e+00 0.000e+00 
lmu0_soc\[8\] I *L 0.000e+00 *S 0.000e+00 0.000e+00 
lmu0_soc\[7\] I *L 0.000e+00 *S 0.000e+00 0.000e+00 
lmu0_soc\[6\] I *L 0.000e+00 *S 0.000e+00 0.000e+00 
lmu0_soc\[5\] I *L 0.000e+00 *S 0.000e+00 0.000e+00 
lmu0_soc\[4\] I *L 0.000e+00 *S 0.000e+00 0.000e+00 
lmu0_soc\[3\] I *L 0.000e+00 *S 0.000e+00 0.000e+00 
lmu0_soc\[2\] I *L 0.000e+00 *S 0.000e+00 0.000e+00 
lmu0_soc\[1\] I *L 0.000e+00 *S 0.000e+00 0.000e+00 
lmu0_soc\[0\] I *L 0.000e+00 *S 0.000e+00 0.000e+00 
lmu1_soc\[15\] I *L 0.000e+00 *S 0.000e+00 0.000e+00 
lmu1_soc\[14\] I *L 0.000e+00 *S 0.000e+00 0.000e+00 
lmu1_soc\[13\] I *L 0.000e+00 *S 0.000e+00 0.000e+00 
lmu1_soc\[12\] I *L 0.000e+00 *S 0.000e+00 0.000e+00 
lmu1_soc\[11\] I *L 0.000e+00 *S 0.000e+00 0.000e+00 
lmu1_soc\[10\] I *L 0.000e+00 *S 0.000e+00 0.000e+00 
lmu1_soc\[9\] I *L 0.000e+00 *S 0.000e+00 0.000e+00 
lmu1_soc\[8\] I *L 0.000e+00 *S 0.000e+00 0.000e+00 
lmu1_soc\[7\] I *L 0.000e+00 *S 0.000e+00 0.000e+00 
lmu1_soc\[6\] I *L 0.000e+00 *S 0.000e+00 0.000e+00 
lmu1_soc\[5\] I *L 0.000e+00 *S 0.000e+00 0.000e+00 
lmu1_soc\[4\] I *L 0.000e+00 *S 0.000e+00 0.000e+00 
lmu1_soc\[3\] I *L 0.000e+00 *S 0.000e+00 0.000e+00 
lmu1_soc\[2\] I *L 0.000e+00 *S 0.000e+00 0.000e+00 
lmu1_soc\[1\] I *L 0.000e+00 *S 0.000e+00 0.000e+00 
lmu1_soc\[0\] I *L 0.000e+00 *S 0.000e+00 0.000e+00 
lmu2_soc\[15\] I *L 0.000e+00 *S 0.000e+00 0.000e+00 
lmu2_soc\[14\] I *L 0.000e+00 *S 0.000e+00 0.000e+00 
lmu2_soc\[13\] I *L 0.000e+00 *S 0.000e+00 0.000e+00 
lmu2_soc\[12\] I *L 0.000e+00 *S 0.000e+00 0.000e+00 
lmu2_soc\[11\] I *L 0.000e+00 *S 0.000e+00 0.000e+00 
lmu2_soc\[10\] I *L 0.000e+00 *S 0.000e+00 0.000e+00 
lmu2_soc\[9\] I *L 0.000e+00 *S 0.000e+00 0.000e+00 
lmu2_soc\[8\] I *L 0.000e+00 *S 0.000e+00 0.000e+00 
lmu2_soc\[7\] I *L 0.000e+00 *S 0.000e+00 0.000e+00 
lmu2_soc\[6\] I *L 0.000e+00 *S 0.000e+00 0.000e+00 
lmu2_soc\[5\] I *L 0.000e+00 *S 0.000e+00 0.000e+00 
lmu2_soc\[4\] I *L 0.000e+00 *S 0.000e+00 0.000e+00 
lmu2_soc\[3\] I *L 0.000e+00 *S 0.000e+00 0.000e+00 
lmu2_soc\[2\] I *L 0.000e+00 *S 0.000e+00 0.000e+00 
lmu2_soc\[1\] I *L 0.000e+00 *S 0.000e+00 0.000e+00 
lmu2_soc\[0\] I *L 0.000e+00 *S 0.000e+00 0.000e+00 
lmu0_soh\[15\] I *L 0.000e+00 *S 0.000e+00 0.000e+00 
lmu0_soh\[14\] I *L 0.000e+00 *S 0.000e+00 0.000e+00 
lmu0_soh\[13\] I *L 0.000e+00 *S 0.000e+00 0.000e+00 
lmu0_soh\[12\] I *L 0.000e+00 *S 0.000e+00 0.000e+00 
lmu0_soh\[11\] I *L 0.000e+00 *S 0.000e+00 0.000e+00 
lmu0_soh\[10\] I *L 0.000e+00 *S 0.000e+00 0.000e+00 
lmu0_soh\[9\] I *L 0.000e+00 *S 0.000e+00 0.000e+00 
lmu0_soh\[8\] I *L 0.000e+00 *S 0.000e+00 0.000e+00 
lmu0_soh\[7\] I *L 0.000e+00 *S 0.000e+00 0.000e+00 
lmu0_soh\[6\] I *L 0.000e+00 *S 0.000e+00 0.000e+00 
lmu0_soh\[5\] I *L 0.000e+00 *S 0.000e+00 0.000e+00 
lmu0_soh\[4\] I *L 0.000e+00 *S 0.000e+00 0.000e+00 
lmu0_soh\[3\] I *L 0.000e+00 *S 0.000e+00 0.000e+00 
lmu0_soh\[2\] I *L 0.000e+00 *S 0.000e+00 0.000e+00 
lmu0_soh\[1\] I *L 0.000e+00 *S 0.000e+00 0.000e+00 
lmu0_soh\[0\] I *L 0.000e+00 *S 0.000e+00 0.000e+00 
lmu1_soh\[15\] I *L 0.000e+00 *S 0.000e+00 0.000e+00 
lmu1_soh\[14\] I *L 0.000e+00 *S 0.000e+00 0.000e+00 
lmu1_soh\[13\] I *L 0.000e+00 *S 0.000e+00 0.000e+00 
lmu1_soh\[12\] I *L 0.000e+00 *S 0.000e+00 0.000e+00 
lmu1_soh\[11\] I *L 0.000e+00 *S 0.000e+00 0.000e+00 
lmu1_soh\[10\] I *L 0.000e+00 *S 0.000e+00 0.000e+00 
lmu1_soh\[9\] I *L 0.000e+00 *S 0.000e+00 0.000e+00 
lmu1_soh\[8\] I *L 0.000e+00 *S 0.000e+00 0.000e+00 
lmu1_soh\[7\] I *L 0.000e+00 *S 0.000e+00 0.000e+00 
lmu1_soh\[6\] I *L 0.000e+00 *S 0.000e+00 0.000e+00 
lmu1_soh\[5\] I *L 0.000e+00 *S 0.000e+00 0.000e+00 
lmu1_soh\[4\] I *L 0.000e+00 *S 0.000e+00 0.000e+00 
lmu1_soh\[3\] I *L 0.000e+00 *S 0.000e+00 0.000e+00 
lmu1_soh\[2\] I *L 0.000e+00 *S 0.000e+00 0.000e+00 
lmu1_soh\[1\] I *L 0.000e+00 *S 0.000e+00 0.000e+00 
lmu1_soh\[0\] I *L 0.000e+00 *S 0.000e+00 0.000e+00 
lmu2_soh\[15\] I *L 0.000e+00 *S 0.000e+00 0.000e+00 
lmu2_soh\[14\] I *L 0.000e+00 *S 0.000e+00 0.000e+00 
lmu2_soh\[13\] I *L 0.000e+00 *S 0.000e+00 0.000e+00 
lmu2_soh\[12\] I *L 0.000e+00 *S 0.000e+00 0.000e+00 
lmu2_soh\[11\] I *L 0.000e+00 *S 0.000e+00 0.000e+00 
lmu2_soh\[10\] I *L 0.000e+00 *S 0.000e+00 0.000e+00 
lmu2_soh\[9\] I *L 0.000e+00 *S 0.000e+00 0.000e+00 
lmu2_soh\[8\] I *L 0.000e+00 *S 0.000e+00 0.000e+00 
lmu2_soh\[7\] I *L 0.000e+00 *S 0.000e+00 0.000e+00 
lmu2_soh\[6\] I *L 0.000e+00 *S 0.000e+00 0.000e+00 
lmu2_soh\[5\] I *L 0.000e+00 *S 0.000e+00 0.000e+00 
lmu2_soh\[4\] I *L 0.000e+00 *S 0.000e+00 0.000e+00 
lmu2_soh\[3\] I *L 0.000e+00 *S 0.000e+00 0.000e+00 
lmu2_soh\[2\] I *L 0.000e+00 *S 0.000e+00 0.000e+00 
lmu2_soh\[1\] I *L 0.000e+00 *S 0.000e+00 0.000e+00 
lmu2_soh\[0\] I *L 0.000e+00 *S 0.000e+00 0.000e+00 
lmu0_fault I *L 0.000e+00 *S 0.000e+00 0.000e+00 
lmu1_fault I *L 0.000e+00 *S 0.000e+00 0.000e+00 
lmu2_fault I *L 0.000e+00 *S 0.000e+00 0.000e+00 
lmu0_fault_code\[7\] I *L 0.000e+00 *S 0.000e+00 0.000e+00 
lmu0_fault_code\[6\] I *L 0.000e+00 *S 0.000e+00 0.000e+00 
lmu0_fault_code\[5\] I *L 0.000e+00 *S 0.000e+00 0.000e+00 
lmu0_fault_code\[4\] I *L 0.000e+00 *S 0.000e+00 0.000e+00 
lmu0_fault_code\[3\] I *L 0.000e+00 *S 0.000e+00 0.000e+00 
lmu0_fault_code\[2\] I *L 0.000e+00 *S 0.000e+00 0.000e+00 
lmu0_fault_code\[1\] I *L 0.000e+00 *S 0.000e+00 0.000e+00 
lmu0_fault_code\[0\] I *L 0.000e+00 *S 0.000e+00 0.000e+00 
lmu1_fault_code\[7\] I *L 0.000e+00 *S 0.000e+00 0.000e+00 
lmu1_fault_code\[6\] I *L 0.000e+00 *S 0.000e+00 0.000e+00 
lmu1_fault_code\[5\] I *L 0.000e+00 *S 0.000e+00 0.000e+00 
lmu1_fault_code\[4\] I *L 0.000e+00 *S 0.000e+00 0.000e+00 
lmu1_fault_code\[3\] I *L 0.000e+00 *S 0.000e+00 0.000e+00 
lmu1_fault_code\[2\] I *L 0.000e+00 *S 0.000e+00 0.000e+00 
lmu1_fault_code\[1\] I *L 0.000e+00 *S 0.000e+00 0.000e+00 
lmu1_fault_code\[0\] I *L 0.000e+00 *S 0.000e+00 0.000e+00 
lmu2_fault_code\[7\] I *L 0.000e+00 *S 0.000e+00 0.000e+00 
lmu2_fault_code\[6\] I *L 0.000e+00 *S 0.000e+00 0.000e+00 
lmu2_fault_code\[5\] I *L 0.000e+00 *S 0.000e+00 0.000e+00 
lmu2_fault_code\[4\] I *L 0.000e+00 *S 0.000e+00 0.000e+00 
lmu2_fault_code\[3\] I *L 0.000e+00 *S 0.000e+00 0.000e+00 
lmu2_fault_code\[2\] I *L 0.000e+00 *S 0.000e+00 0.000e+00 
lmu2_fault_code\[1\] I *L 0.000e+00 *S 0.000e+00 0.000e+00 
lmu2_fault_code\[0\] I *L 0.000e+00 *S 0.000e+00 0.000e+00 
spi_sclk O *L 5.000e+00 *S 1.732e-02 6.010e-02 
spi_mosi O *L 5.000e+00 *S 1.597e-02 5.799e-02 
spi_cs_n\[2\] O *L 5.000e+00 *S 4.604e-02 4.610e-02 
spi_cs_n\[1\] O *L 5.000e+00 *S 4.604e-02 4.610e-02 
spi_cs_n\[0\] O *L 5.000e+00 *S 4.604e-02 4.610e-02 
pack_soc_avg\[15\] O *L 5.000e+00 *S 0.000e+00 0.000e+00 
pack_soc_avg\[14\] O *L 5.000e+00 *S 1.597e-02 5.799e-02 
pack_soc_avg\[13\] O *L 5.000e+00 *S 1.597e-02 5.799e-02 
pack_soc_avg\[12\] O *L 5.000e+00 *S 1.597e-02 5.799e-02 
pack_soc_avg\[11\] O *L 5.000e+00 *S 1.597e-02 5.799e-02 
pack_soc_avg\[10\] O *L 5.000e+00 *S 1.597e-02 5.799e-02 
pack_soc_avg\[9\] O *L 5.000e+00 *S 1.597e-02 5.799e-02 
pack_soc_avg\[8\] O *L 5.000e+00 *S 1.597e-02 5.799e-02 
pack_soc_avg\[7\] O *L 5.000e+00 *S 1.597e-02 5.799e-02 
pack_soc_avg\[6\] O *L 5.000e+00 *S 1.597e-02 5.799e-02 
pack_soc_avg\[5\] O *L 5.000e+00 *S 1.597e-02 5.799e-02 
pack_soc_avg\[4\] O *L 5.000e+00 *S 1.597e-02 5.799e-02 
pack_soc_avg\[3\] O *L 5.000e+00 *S 1.597e-02 5.799e-02 
pack_soc_avg\[2\] O *L 5.000e+00 *S 1.597e-02 5.799e-02 
pack_soc_avg\[1\] O *L 5.000e+00 *S 1.597e-02 5.799e-02 
pack_soc_avg\[0\] O *L 5.000e+00 *S 1.597e-02 5.799e-02 
pack_soh_avg\[15\] O *L 5.000e+00 *S 0.000e+00 0.000e+00 
pack_soh_avg\[14\] O *L 5.000e+00 *S 1.597e-02 5.799e-02 
pack_soh_avg\[13\] O *L 5.000e+00 *S 1.597e-02 5.799e-02 
pack_soh_avg\[12\] O *L 5.000e+00 *S 1.597e-02 5.799e-02 
pack_soh_avg\[11\] O *L 5.000e+00 *S 1.597e-02 5.799e-02 
pack_soh_avg\[10\] O *L 5.000e+00 *S 1.597e-02 5.799e-02 
pack_soh_avg\[9\] O *L 5.000e+00 *S 1.597e-02 5.799e-02 
pack_soh_avg\[8\] O *L 5.000e+00 *S 1.597e-02 5.799e-02 
pack_soh_avg\[7\] O *L 5.000e+00 *S 1.597e-02 5.799e-02 
pack_soh_avg\[6\] O *L 5.000e+00 *S 1.597e-02 5.799e-02 
pack_soh_avg\[5\] O *L 5.000e+00 *S 1.597e-02 5.799e-02 
pack_soh_avg\[4\] O *L 5.000e+00 *S 1.597e-02 5.799e-02 
pack_soh_avg\[3\] O *L 5.000e+00 *S 1.597e-02 5.799e-02 
pack_soh_avg\[2\] O *L 5.000e+00 *S 1.597e-02 5.799e-02 
pack_soh_avg\[1\] O *L 5.000e+00 *S 1.597e-02 5.799e-02 
pack_soh_avg\[0\] O *L 5.000e+00 *S 1.597e-02 5.799e-02 
global_fault O *L 5.000e+00 *S 4.604e-02 4.610e-02 
global_fault_code\[7\] O *L 5.000e+00 *S 1.597e-02 5.799e-02 
global_fault_code\[6\] O *L 5.000e+00 *S 1.597e-02 5.799e-02 
global_fault_code\[5\] O *L 5.000e+00 *S 1.597e-02 5.799e-02 
global_fault_code\[4\] O *L 5.000e+00 *S 1.597e-02 5.799e-02 
global_fault_code\[3\] O *L 5.000e+00 *S 1.597e-02 5.799e-02 
global_fault_code\[2\] O *L 5.000e+00 *S 1.597e-02 5.799e-02 
global_fault_code\[1\] O *L 5.000e+00 *S 1.597e-02 5.799e-02 
global_fault_code\[0\] O *L 5.000e+00 *S 1.597e-02 5.799e-02 
active_lmu_id\[1\] O *L 5.000e+00 *S 4.604e-02 4.610e-02 
active_lmu_id\[0\] O *L 5.000e+00 *S 4.604e-02 4.610e-02 
poll_busy O *L 5.000e+00 *S 1.641e-02 5.868e-02 
current_warn O *L 5.000e+00 *S 1.597e-02 5.799e-02 
current_trip O *L 5.000e+00 *S 1.597e-02 5.799e-02 
thermal_warn O *L 5.000e+00 *S 2.689e-02 7.502e-02 
thermal_trip O *L 5.000e+00 *S 3.668e-02 9.956e-02 
lmu_count_fault O *L 5.000e+00 *S 0.000e+00 0.000e+00 
allowed_current\[15\] O *L 5.000e+00 *S 0.000e+00 0.000e+00 
allowed_current\[14\] O *L 5.000e+00 *S 0.000e+00 0.000e+00 
allowed_current\[13\] O *L 5.000e+00 *S 0.000e+00 0.000e+00 
allowed_current\[12\] O *L 5.000e+00 *S 0.000e+00 0.000e+00 
allowed_current\[11\] O *L 5.000e+00 *S 0.000e+00 0.000e+00 
allowed_current\[10\] O *L 5.000e+00 *S 0.000e+00 0.000e+00 
allowed_current\[9\] O *L 5.000e+00 *S 0.000e+00 0.000e+00 
allowed_current\[8\] O *L 5.000e+00 *S 8.424e-02 8.464e-02 
allowed_current\[7\] O *L 5.000e+00 *S 2.689e-02 7.502e-02 
allowed_current\[6\] O *L 5.000e+00 *S 3.668e-02 9.956e-02 
allowed_current\[5\] O *L 5.000e+00 *S 8.424e-02 8.464e-02 
allowed_current\[4\] O *L 5.000e+00 *S 2.689e-02 7.502e-02 
allowed_current\[3\] O *L 5.000e+00 *S 4.604e-02 4.610e-02 
allowed_current\[2\] O *L 5.000e+00 *S 4.604e-02 4.610e-02 
allowed_current\[1\] O *L 5.000e+00 *S 2.689e-02 7.502e-02 
allowed_current\[0\] O *L 5.000e+00 *S 3.668e-02 9.956e-02 
supervisor_code\[7\] O *L 5.000e+00 *S 2.689e-02 7.502e-02 
supervisor_code\[6\] O *L 5.000e+00 *S 1.597e-02 5.799e-02 
supervisor_code\[5\] O *L 5.000e+00 *S 2.689e-02 7.502e-02 
supervisor_code\[4\] O *L 5.000e+00 *S 0.000e+00 0.000e+00 
supervisor_code\[3\] O *L 5.000e+00 *S 0.000e+00 0.000e+00 
supervisor_code\[2\] O *L 5.000e+00 *S 1.597e-02 5.799e-02 
supervisor_code\[1\] O *L 5.000e+00 *S 1.597e-02 5.799e-02 
supervisor_code\[0\] O *L 5.000e+00 *S 1.597e-02 5.799e-02 
max_temp_seen\[11\] O *L 5.000e+00 *S 4.604e-02 4.610e-02 
max_temp_seen\[10\] O *L 5.000e+00 *S 4.604e-02 4.610e-02 
max_temp_seen\[9\] O *L 5.000e+00 *S 1.647e-02 5.879e-02 
max_temp_seen\[8\] O *L 5.000e+00 *S 1.657e-02 5.894e-02 
max_temp_seen\[7\] O *L 5.000e+00 *S 1.650e-02 5.882e-02 
max_temp_seen\[6\] O *L 5.000e+00 *S 4.604e-02 4.610e-02 
max_temp_seen\[5\] O *L 5.000e+00 *S 1.651e-02 5.884e-02 
max_temp_seen\[4\] O *L 5.000e+00 *S 1.643e-02 5.871e-02 
max_temp_seen\[3\] O *L 5.000e+00 *S 4.604e-02 4.610e-02 
max_temp_seen\[2\] O *L 5.000e+00 *S 1.660e-02 5.897e-02 
max_temp_seen\[1\] O *L 5.000e+00 *S 1.657e-02 5.894e-02 
max_temp_seen\[0\] O *L 5.000e+00 *S 1.647e-02 5.879e-02 

*R_NET clk 7.157e+00
*DRIVER clk
*CELL NULL
*C2_R1_C1 3.578e+00 2.168e+00 3.578e+00 
*LOADS
*RC u_spi_master/clk_gate_cs_n_reg/latch:CK 3.070e-02
*RC u_spi_master/clk_gate_bit_cnt_reg/latch:CK 3.070e-02
*RC u_spi_master/clk_gate_clk_cnt_reg/latch:CK 3.070e-02
*RC u_spi_master/clk_gate_tx_shift_reg/latch:CK 3.070e-02
*RC clk_gate_state_reg/latch:CK 3.070e-02
*RC clk_gate_spi_slave_sel_reg/latch:CK 3.070e-02
*RC clk_gate_max_temp_seen_reg/latch:CK 3.070e-02
*RC u_curr_sup/allowed_current_reg_2_:CK 2.029e-02
*RC u_curr_sup/current_warn_reg:CK 2.305e-02
*RC u_curr_sup/supervisor_code_reg_6_:CK 2.305e-02
*RC u_curr_sup/supervisor_code_reg_2_:CK 2.305e-02
*RC u_curr_sup/supervisor_code_reg_1_:CK 2.305e-02
*RC u_curr_sup/supervisor_code_reg_0_:CK 2.305e-02
*RC u_curr_sup/current_trip_reg:CK 2.305e-02
*RC u_curr_sup/allowed_current_reg_0_:CK 2.305e-02
*RC u_curr_sup/allowed_current_reg_3_:CK 2.029e-02
*RC u_curr_sup/allowed_current_reg_4_:CK 2.305e-02
*RC u_curr_sup/allowed_current_reg_1_:CK 2.305e-02
*RC u_curr_sup/supervisor_code_reg_5_:CK 2.305e-02
*RC u_curr_sup/allowed_current_reg_5_:CK 2.029e-02
*RC poll_busy_reg:CK 2.305e-02
*RC spi_start_reg:CK 2.305e-02
*RC u_spi_master/state_reg_0_:CK 2.305e-02
*RC u_spi_master/state_reg_1_:CK 2.305e-02
*RC u_spi_master/sclk_reg:CK 2.305e-02
*END

*R_NET rst_n 8.451e-01
*DRIVER rst_n
*CELL NULL
*C2_R1_C1 4.225e-01 8.117e-02 4.225e-01 
*LOADS
*RC U164:A 4.318e-03
*RC pack_soh_avg_reg_4_:RD 1.423e-02
*RC U205:A 4.318e-03
*END

*R_NET start_poll 5.234e-01
*DRIVER start_poll
*CELL NULL
*C2_R1_C1 2.617e-01 5.002e-02 2.617e-01 
*LOADS
*RC U209:A1 6.423e-03
*RC U222:A1 6.668e-03
*END

*R_NET pack_current\[15\] 2.406e-01
*DRIVER pack_current\[15\]
*CELL NULL
*C2_R1_C1 1.203e-01 2.192e-02 1.203e-01 
*LOADS
*RC u_curr_sup/U26:A2 5.274e-03
*END

*R_NET pack_current\[14\] 2.698e-01
*DRIVER pack_current\[14\]
*CELL NULL
*C2_R1_C1 1.349e-01 2.192e-02 1.349e-01 
*LOADS
*RC u_curr_sup/U18:A2 5.914e-03
*END

*R_NET pack_current\[13\] 2.571e-01
*DRIVER pack_current\[13\]
*CELL NULL
*C2_R1_C1 1.286e-01 2.192e-02 1.286e-01 
*LOADS
*RC u_curr_sup/U18:A1 5.637e-03
*END

*R_NET pack_current\[12\] 2.540e-01
*DRIVER pack_current\[12\]
*CELL NULL
*C2_R1_C1 1.270e-01 2.192e-02 1.270e-01 
*LOADS
*RC u_curr_sup/U26:A4 5.569e-03
*END

*R_NET pack_current\[11\] 1.887e-01
*DRIVER pack_current\[11\]
*CELL NULL
*C2_R1_C1 9.436e-02 2.192e-02 9.436e-02 
*LOADS
*RC u_curr_sup/U26:A1 4.138e-03
*END

*R_NET pack_current\[10\] 2.373e-01
*DRIVER pack_current\[10\]
*CELL NULL
*C2_R1_C1 1.186e-01 2.192e-02 1.186e-01 
*LOADS
*RC u_curr_sup/U26:A3 5.202e-03
*END

*R_NET pack_current\[9\] 5.368e-01
*DRIVER pack_current\[9\]
*CELL NULL
*C2_R1_C1 2.684e-01 5.002e-02 2.684e-01 
*LOADS
*RC u_curr_sup/U35:A1 4.814e-03
*RC u_curr_sup/U38:A2 8.611e-03
*END

*R_NET pack_current\[8\] 5.674e-01
*DRIVER pack_current\[8\]
*CELL NULL
*C2_R1_C1 2.837e-01 5.002e-02 2.837e-01 
*LOADS
*RC u_curr_sup/U25:A1 8.046e-03
*RC u_curr_sup/U38:A1 6.145e-03
*END

*R_NET pack_current\[7\] 5.307e-01
*DRIVER pack_current\[7\]
*CELL NULL
*C2_R1_C1 2.654e-01 5.002e-02 2.654e-01 
*LOADS
*RC u_curr_sup/U19:A1 7.402e-03
*RC u_curr_sup/U37:A1 6.446e-03
*END

*R_NET pack_current\[6\] 5.520e-01
*DRIVER pack_current\[6\]
*CELL NULL
*C2_R1_C1 2.760e-01 5.002e-02 2.760e-01 
*LOADS
*RC u_curr_sup/U19:A2 7.174e-03
*RC u_curr_sup/U37:A2 6.762e-03
*END

*R_NET pack_current\[5\] 6.675e-01
*DRIVER pack_current\[5\]
*CELL NULL
*C2_R1_C1 3.338e-01 8.117e-02 3.338e-01 
*LOADS
*RC u_curr_sup/U19:A3 6.265e-03
*RC u_curr_sup/U36:B1 5.910e-03
*RC u_curr_sup/U36:A1 5.994e-03
*END

*R_NET pack_current\[4\] 4.918e-01
*DRIVER pack_current\[4\]
*CELL NULL
*C2_R1_C1 2.459e-01 5.002e-02 2.459e-01 
*LOADS
*RC u_curr_sup/U19:A4 8.125e-03
*RC u_curr_sup/U36:B2 4.175e-03
*END

*R_NET pack_current\[3\] 2.459e-01
*DRIVER pack_current\[3\]
*CELL NULL
*C2_R1_C1 1.229e-01 2.192e-02 1.229e-01 
*LOADS
*RC u_curr_sup/U36:A2 5.390e-03
*END

*R_NET pack_current\[2\] 2.166e-01
*DRIVER pack_current\[2\]
*CELL NULL
*C2_R1_C1 1.083e-01 2.192e-02 1.083e-01 
*LOADS
*RC u_curr_sup/U36:A3 4.749e-03
*END

*R_NET lmu0_temp_die\[11\] 4.749e-01
*DRIVER lmu0_temp_die\[11\]
*CELL NULL
*C2_R1_C1 2.375e-01 8.117e-02 2.375e-01 
*LOADS
*RC gte_x_3/U106:A 4.318e-03
*RC U250:A2 4.234e-03
*RC gte_x_4/U106:A 4.318e-03
*END

*R_NET lmu0_temp_die\[10\] 4.749e-01
*DRIVER lmu0_temp_die\[10\]
*CELL NULL
*C2_R1_C1 2.375e-01 8.117e-02 2.375e-01 
*LOADS
*RC gte_x_3/U102:A 4.318e-03
*RC U249:A2 4.234e-03
*RC gte_x_4/U102:A 4.318e-03
*END

*R_NET lmu0_temp_die\[9\] 4.749e-01
*DRIVER lmu0_temp_die\[9\]
*CELL NULL
*C2_R1_C1 2.375e-01 8.117e-02 2.375e-01 
*LOADS
*RC gte_x_3/U104:A 4.318e-03
*RC U248:A2 4.234e-03
*RC gte_x_4/U104:A 4.318e-03
*END

*R_NET lmu0_temp_die\[8\] 4.749e-01
*DRIVER lmu0_temp_die\[8\]
*CELL NULL
*C2_R1_C1 2.375e-01 8.117e-02 2.375e-01 
*LOADS
*RC gte_x_3/U103:A 4.318e-03
*RC U247:A2 4.234e-03
*RC gte_x_4/U103:A 4.318e-03
*END

*R_NET lmu0_temp_die\[7\] 4.749e-01
*DRIVER lmu0_temp_die\[7\]
*CELL NULL
*C2_R1_C1 2.375e-01 8.117e-02 2.375e-01 
*LOADS
*RC gte_x_3/U91:A 4.318e-03
*RC U246:A2 4.234e-03
*RC gte_x_4/U91:A 4.318e-03
*END

*R_NET lmu0_temp_die\[6\] 4.749e-01
*DRIVER lmu0_temp_die\[6\]
*CELL NULL
*C2_R1_C1 2.375e-01 8.117e-02 2.375e-01 
*LOADS
*RC gte_x_3/U89:A 4.318e-03
*RC U245:A2 4.234e-03
*RC gte_x_4/U89:A 4.318e-03
*END

*R_NET lmu0_temp_die\[5\] 4.749e-01
*DRIVER lmu0_temp_die\[5\]
*CELL NULL
*C2_R1_C1 2.375e-01 8.117e-02 2.375e-01 
*LOADS
*RC gte_x_3/U93:A 4.318e-03
*RC U244:A2 4.234e-03
*RC gte_x_4/U93:A 4.318e-03
*END

*R_NET lmu0_temp_die\[4\] 4.749e-01
*DRIVER lmu0_temp_die\[4\]
*CELL NULL
*C2_R1_C1 2.375e-01 8.117e-02 2.375e-01 
*LOADS
*RC gte_x_3/U92:A 4.318e-03
*RC U243:A2 4.234e-03
*RC gte_x_4/U92:A 4.318e-03
*END

*R_NET lmu0_temp_die\[3\] 4.749e-01
*DRIVER lmu0_temp_die\[3\]
*CELL NULL
*C2_R1_C1 2.375e-01 8.117e-02 2.375e-01 
*LOADS
*RC gte_x_3/U85:A 4.318e-03
*RC U242:A2 4.234e-03
*RC gte_x_4/U85:A 4.318e-03
*END

*R_NET lmu0_temp_die\[2\] 4.749e-01
*DRIVER lmu0_temp_die\[2\]
*CELL NULL
*C2_R1_C1 2.375e-01 8.117e-02 2.375e-01 
*LOADS
*RC gte_x_3/U84:A 4.318e-03
*RC U241:A2 4.234e-03
*RC gte_x_4/U84:A 4.318e-03
*END

*R_NET lmu0_temp_die\[1\] 4.749e-01
*DRIVER lmu0_temp_die\[1\]
*CELL NULL
*C2_R1_C1 2.375e-01 8.117e-02 2.375e-01 
*LOADS
*RC gte_x_3/U81:A 4.318e-03
*RC U240:A2 4.234e-03
*RC gte_x_4/U81:A 4.318e-03
*END

*R_NET lmu0_temp_die\[0\] 4.749e-01
*DRIVER lmu0_temp_die\[0\]
*CELL NULL
*C2_R1_C1 2.375e-01 8.117e-02 2.375e-01 
*LOADS
*RC gte_x_3/U82:A 4.318e-03
*RC U237:A2 4.234e-03
*RC gte_x_4/U82:A 4.318e-03
*END

*R_NET lmu1_temp_die\[11\] 1.005e+00
*DRIVER lmu1_temp_die\[11\]
*CELL NULL
*C2_R1_C1 5.027e-01 1.158e-01 5.027e-01 
*LOADS
*RC gte_x_3/U77:A2 7.307e-03
*RC gte_x_3/U110:A1 9.334e-03
*RC U250:C1 8.609e-03
*RC gte_x_5/U106:A 4.629e-03
*END

*R_NET lmu1_temp_die\[10\] 9.165e-01
*DRIVER lmu1_temp_die\[10\]
*CELL NULL
*C2_R1_C1 4.583e-01 1.158e-01 4.583e-01 
*LOADS
*RC gte_x_3/U61:A1 6.124e-03
*RC gte_x_3/U78:A2 7.164e-03
*RC U249:C1 8.609e-03
*RC gte_x_5/U102:A 4.629e-03
*END

*R_NET lmu1_temp_die\[9\] 1.005e+00
*DRIVER lmu1_temp_die\[9\]
*CELL NULL
*C2_R1_C1 5.027e-01 1.158e-01 5.027e-01 
*LOADS
*RC gte_x_3/U71:A2 7.307e-03
*RC gte_x_3/U107:A1 9.334e-03
*RC U248:C1 8.609e-03
*RC gte_x_5/U104:A 4.629e-03
*END

*R_NET lmu1_temp_die\[8\] 1.005e+00
*DRIVER lmu1_temp_die\[8\]
*CELL NULL
*C2_R1_C1 5.027e-01 1.158e-01 5.027e-01 
*LOADS
*RC gte_x_3/U63:A2 7.307e-03
*RC gte_x_3/U62:A1 9.334e-03
*RC U247:C1 8.609e-03
*RC gte_x_5/U103:A 4.629e-03
*END

*R_NET lmu1_temp_die\[7\] 1.005e+00
*DRIVER lmu1_temp_die\[7\]
*CELL NULL
*C2_R1_C1 5.027e-01 1.158e-01 5.027e-01 
*LOADS
*RC gte_x_3/U80:A2 7.307e-03
*RC gte_x_3/U98:A1 9.334e-03
*RC U246:C1 8.609e-03
*RC gte_x_5/U91:A 4.629e-03
*END

*R_NET lmu1_temp_die\[6\] 1.005e+00
*DRIVER lmu1_temp_die\[6\]
*CELL NULL
*C2_R1_C1 5.027e-01 1.158e-01 5.027e-01 
*LOADS
*RC gte_x_3/U90:A2 7.307e-03
*RC gte_x_3/U97:A1 9.334e-03
*RC U245:C1 8.609e-03
*RC gte_x_5/U89:A 4.629e-03
*END

*R_NET lmu1_temp_die\[5\] 1.005e+00
*DRIVER lmu1_temp_die\[5\]
*CELL NULL
*C2_R1_C1 5.027e-01 1.158e-01 5.027e-01 
*LOADS
*RC gte_x_3/U75:A2 7.307e-03
*RC gte_x_3/U95:A1 9.334e-03
*RC U244:C1 8.609e-03
*RC gte_x_5/U93:A 4.629e-03
*END

*R_NET lmu1_temp_die\[4\] 1.005e+00
*DRIVER lmu1_temp_die\[4\]
*CELL NULL
*C2_R1_C1 5.027e-01 1.158e-01 5.027e-01 
*LOADS
*RC gte_x_3/U69:A2 7.307e-03
*RC gte_x_3/U68:A1 9.334e-03
*RC U243:C1 8.609e-03
*RC gte_x_5/U92:A 4.629e-03
*END

*R_NET lmu1_temp_die\[3\] 1.005e+00
*DRIVER lmu1_temp_die\[3\]
*CELL NULL
*C2_R1_C1 5.027e-01 1.158e-01 5.027e-01 
*LOADS
*RC gte_x_3/U73:A2 7.307e-03
*RC gte_x_3/U86:A1 9.334e-03
*RC U242:C1 8.609e-03
*RC gte_x_5/U85:A 4.629e-03
*END

*R_NET lmu1_temp_die\[2\] 1.005e+00
*DRIVER lmu1_temp_die\[2\]
*CELL NULL
*C2_R1_C1 5.027e-01 1.158e-01 5.027e-01 
*LOADS
*RC gte_x_3/U67:A2 7.307e-03
*RC gte_x_3/U66:A1 9.334e-03
*RC U241:C1 8.609e-03
*RC gte_x_5/U84:A 4.629e-03
*END

*R_NET lmu1_temp_die\[1\] 9.722e-01
*DRIVER lmu1_temp_die\[1\]
*CELL NULL
*C2_R1_C1 4.861e-01 1.158e-01 4.861e-01 
*LOADS
*RC gte_x_3/U65:A1 6.310e-03
*RC gte_x_3/U64:A1 9.334e-03
*RC U240:C1 8.609e-03
*RC gte_x_5/U81:A 4.629e-03
*END

*R_NET lmu1_temp_die\[0\] 7.669e-01
*DRIVER lmu1_temp_die\[0\]
*CELL NULL
*C2_R1_C1 3.834e-01 8.117e-02 3.834e-01 
*LOADS
*RC gte_x_3/U60:A1 8.716e-03
*RC U237:B2 7.726e-03
*RC gte_x_5/U82:A 4.318e-03
*END

*R_NET lmu2_temp_die\[11\] 1.399e+00
*DRIVER lmu2_temp_die\[11\]
*CELL NULL
*C2_R1_C1 6.995e-01 1.542e-01 6.995e-01 
*LOADS
*RC gte_x_4/U77:A2 7.797e-03
*RC gte_x_4/U110:A1 9.958e-03
*RC U250:B2 8.829e-03
*RC gte_x_5/U77:A2 7.797e-03
*RC gte_x_5/U110:A1 9.958e-03
*END

*R_NET lmu2_temp_die\[10\] 1.191e+00
*DRIVER lmu2_temp_die\[10\]
*CELL NULL
*C2_R1_C1 5.955e-01 1.542e-01 5.955e-01 
*LOADS
*RC gte_x_4/U61:A1 6.537e-03
*RC gte_x_4/U78:A2 7.646e-03
*RC U249:B2 8.829e-03
*RC gte_x_5/U61:A1 6.537e-03
*RC gte_x_5/U78:A2 7.646e-03
*END

*R_NET lmu2_temp_die\[9\] 1.399e+00
*DRIVER lmu2_temp_die\[9\]
*CELL NULL
*C2_R1_C1 6.995e-01 1.542e-01 6.995e-01 
*LOADS
*RC gte_x_4/U107:A1 9.958e-03
*RC gte_x_4/U71:A2 7.797e-03
*RC U248:B2 8.829e-03
*RC gte_x_5/U71:A2 7.797e-03
*RC gte_x_5/U107:A1 9.958e-03
*END

*R_NET lmu2_temp_die\[8\] 1.399e+00
*DRIVER lmu2_temp_die\[8\]
*CELL NULL
*C2_R1_C1 6.995e-01 1.542e-01 6.995e-01 
*LOADS
*RC gte_x_4/U63:A2 7.797e-03
*RC gte_x_4/U62:A1 9.958e-03
*RC U247:B2 8.829e-03
*RC gte_x_5/U63:A2 7.797e-03
*RC gte_x_5/U62:A1 9.958e-03
*END

*R_NET lmu2_temp_die\[7\] 1.399e+00
*DRIVER lmu2_temp_die\[7\]
*CELL NULL
*C2_R1_C1 6.995e-01 1.542e-01 6.995e-01 
*LOADS
*RC gte_x_4/U98:A1 9.958e-03
*RC gte_x_4/U80:A2 7.797e-03
*RC U246:B2 8.829e-03
*RC gte_x_5/U80:A2 7.797e-03
*RC gte_x_5/U98:A1 9.958e-03
*END

*R_NET lmu2_temp_die\[6\] 1.399e+00
*DRIVER lmu2_temp_die\[6\]
*CELL NULL
*C2_R1_C1 6.995e-01 1.542e-01 6.995e-01 
*LOADS
*RC gte_x_4/U97:A1 9.958e-03
*RC gte_x_4/U90:A2 7.797e-03
*RC U245:B2 8.829e-03
*RC gte_x_5/U90:A2 7.797e-03
*RC gte_x_5/U97:A1 9.958e-03
*END

*R_NET lmu2_temp_die\[5\] 1.399e+00
*DRIVER lmu2_temp_die\[5\]
*CELL NULL
*C2_R1_C1 6.995e-01 1.542e-01 6.995e-01 
*LOADS
*RC gte_x_4/U95:A1 9.958e-03
*RC gte_x_4/U75:A2 7.797e-03
*RC U244:B2 8.829e-03
*RC gte_x_5/U75:A2 7.797e-03
*RC gte_x_5/U95:A1 9.958e-03
*END

*R_NET lmu2_temp_die\[4\] 1.399e+00
*DRIVER lmu2_temp_die\[4\]
*CELL NULL
*C2_R1_C1 6.995e-01 1.542e-01 6.995e-01 
*LOADS
*RC gte_x_4/U69:A2 7.797e-03
*RC gte_x_4/U68:A1 9.958e-03
*RC U243:B2 8.829e-03
*RC gte_x_5/U69:A2 7.797e-03
*RC gte_x_5/U68:A1 9.958e-03
*END

*R_NET lmu2_temp_die\[3\] 1.399e+00
*DRIVER lmu2_temp_die\[3\]
*CELL NULL
*C2_R1_C1 6.995e-01 1.542e-01 6.995e-01 
*LOADS
*RC gte_x_4/U86:A1 9.958e-03
*RC gte_x_4/U73:A2 7.797e-03
*RC U242:B2 8.829e-03
*RC gte_x_5/U73:A2 7.797e-03
*RC gte_x_5/U86:A1 9.958e-03
*END

*R_NET lmu2_temp_die\[2\] 1.399e+00
*DRIVER lmu2_temp_die\[2\]
*CELL NULL
*C2_R1_C1 6.995e-01 1.542e-01 6.995e-01 
*LOADS
*RC gte_x_4/U67:A2 7.797e-03
*RC gte_x_4/U66:A1 9.958e-03
*RC U241:B2 8.829e-03
*RC gte_x_5/U65:A2 7.797e-03
*RC gte_x_5/U64:A1 9.958e-03
*END

*R_NET lmu2_temp_die\[1\] 1.369e+00
*DRIVER lmu2_temp_die\[1\]
*CELL NULL
*C2_R1_C1 6.844e-01 1.542e-01 6.844e-01 
*LOADS
*RC gte_x_4/U65:A1 6.735e-03
*RC gte_x_4/U64:A1 9.958e-03
*RC U240:B2 8.829e-03
*RC gte_x_5/U67:A1 6.735e-03
*RC gte_x_5/U66:A1 9.958e-03
*END

*R_NET lmu2_temp_die\[0\] 1.070e+00
*DRIVER lmu2_temp_die\[0\]
*CELL NULL
*C2_R1_C1 5.351e-01 8.117e-02 5.351e-01 
*LOADS
*RC gte_x_4/U60:A1 8.716e-03
*RC U237:C2 1.152e-02
*RC gte_x_5/U60:A1 8.716e-03
*END

*R_NET lmu0_soc\[15\] 2.155e-01
*DRIVER lmu0_soc\[15\]
*CELL NULL
*C2_R1_C1 1.077e-01 2.192e-02 1.077e-01 
*LOADS
*RC DP_OP_26J1_122_5989/U66:A1 4.724e-03
*END

*R_NET lmu0_soc\[14\] 2.716e-01
*DRIVER lmu0_soc\[14\]
*CELL NULL
*C2_R1_C1 1.358e-01 2.192e-02 1.358e-01 
*LOADS
*RC DP_OP_26J1_122_5989/U39:A 5.955e-03
*END

*R_NET lmu0_soc\[13\] 6.727e-01
*DRIVER lmu0_soc\[13\]
*CELL NULL
*C2_R1_C1 3.363e-01 2.192e-02 3.363e-01 
*LOADS
*RC DP_OP_26J1_122_5989/U64:A 1.475e-02
*END

*R_NET lmu0_soc\[12\] 6.727e-01
*DRIVER lmu0_soc\[12\]
*CELL NULL
*C2_R1_C1 3.363e-01 2.192e-02 3.363e-01 
*LOADS
*RC DP_OP_26J1_122_5989/U60:A 1.475e-02
*END

*R_NET lmu0_soc\[11\] 2.716e-01
*DRIVER lmu0_soc\[11\]
*CELL NULL
*C2_R1_C1 1.358e-01 2.192e-02 1.358e-01 
*LOADS
*RC DP_OP_26J1_122_5989/U40:A 5.955e-03
*END

*R_NET lmu0_soc\[10\] 2.716e-01
*DRIVER lmu0_soc\[10\]
*CELL NULL
*C2_R1_C1 1.358e-01 2.192e-02 1.358e-01 
*LOADS
*RC DP_OP_26J1_122_5989/U42:A 5.955e-03
*END

*R_NET lmu0_soc\[9\] 6.727e-01
*DRIVER lmu0_soc\[9\]
*CELL NULL
*C2_R1_C1 3.363e-01 2.192e-02 3.363e-01 
*LOADS
*RC DP_OP_26J1_122_5989/U59:A 1.475e-02
*END

*R_NET lmu0_soc\[8\] 6.727e-01
*DRIVER lmu0_soc\[8\]
*CELL NULL
*C2_R1_C1 3.363e-01 2.192e-02 3.363e-01 
*LOADS
*RC DP_OP_26J1_122_5989/U58:A 1.475e-02
*END

*R_NET lmu0_soc\[7\] 2.716e-01
*DRIVER lmu0_soc\[7\]
*CELL NULL
*C2_R1_C1 1.358e-01 2.192e-02 1.358e-01 
*LOADS
*RC DP_OP_26J1_122_5989/U43:A 5.955e-03
*END

*R_NET lmu0_soc\[6\] 6.727e-01
*DRIVER lmu0_soc\[6\]
*CELL NULL
*C2_R1_C1 3.363e-01 2.192e-02 3.363e-01 
*LOADS
*RC DP_OP_26J1_122_5989/U57:A 1.475e-02
*END

*R_NET lmu0_soc\[5\] 6.727e-01
*DRIVER lmu0_soc\[5\]
*CELL NULL
*C2_R1_C1 3.363e-01 2.192e-02 3.363e-01 
*LOADS
*RC DP_OP_26J1_122_5989/U56:A 1.475e-02
*END

*R_NET lmu0_soc\[4\] 2.716e-01
*DRIVER lmu0_soc\[4\]
*CELL NULL
*C2_R1_C1 1.358e-01 2.192e-02 1.358e-01 
*LOADS
*RC DP_OP_26J1_122_5989/U44:A 5.955e-03
*END

*R_NET lmu0_soc\[3\] 6.727e-01
*DRIVER lmu0_soc\[3\]
*CELL NULL
*C2_R1_C1 3.363e-01 2.192e-02 3.363e-01 
*LOADS
*RC DP_OP_26J1_122_5989/U55:A 1.475e-02
*END

*R_NET lmu0_soc\[2\] 6.727e-01
*DRIVER lmu0_soc\[2\]
*CELL NULL
*C2_R1_C1 3.363e-01 2.192e-02 3.363e-01 
*LOADS
*RC DP_OP_26J1_122_5989/U54:A 1.475e-02
*END

*R_NET lmu0_soc\[1\] 5.593e-01
*DRIVER lmu0_soc\[1\]
*CELL NULL
*C2_R1_C1 2.796e-01 2.192e-02 2.796e-01 
*LOADS
*RC DP_OP_26J1_122_5989/U53:A 1.226e-02
*END

*R_NET lmu0_soc\[0\] 3.689e-01
*DRIVER lmu0_soc\[0\]
*CELL NULL
*C2_R1_C1 1.845e-01 2.192e-02 1.845e-01 
*LOADS
*RC DP_OP_26J1_122_5989/U37:CI 8.089e-03
*END

*R_NET lmu1_soc\[15\] 2.412e-01
*DRIVER lmu1_soc\[15\]
*CELL NULL
*C2_R1_C1 1.206e-01 2.192e-02 1.206e-01 
*LOADS
*RC DP_OP_26J1_122_5989/U66:A3 5.287e-03
*END

*R_NET lmu1_soc\[14\] 3.689e-01
*DRIVER lmu1_soc\[14\]
*CELL NULL
*C2_R1_C1 1.845e-01 2.192e-02 1.845e-01 
*LOADS
*RC DP_OP_26J1_122_5989/U39:CI 8.089e-03
*END

*R_NET lmu1_soc\[13\] 4.427e-01
*DRIVER lmu1_soc\[13\]
*CELL NULL
*C2_R1_C1 2.214e-01 2.192e-02 2.214e-01 
*LOADS
*RC DP_OP_26J1_122_5989/U64:CI 9.706e-03
*END

*R_NET lmu1_soc\[12\] 4.427e-01
*DRIVER lmu1_soc\[12\]
*CELL NULL
*C2_R1_C1 2.214e-01 2.192e-02 2.214e-01 
*LOADS
*RC DP_OP_26J1_122_5989/U60:CI 9.706e-03
*END

*R_NET lmu1_soc\[11\] 3.689e-01
*DRIVER lmu1_soc\[11\]
*CELL NULL
*C2_R1_C1 1.845e-01 2.192e-02 1.845e-01 
*LOADS
*RC DP_OP_26J1_122_5989/U40:CI 8.089e-03
*END

*R_NET lmu1_soc\[10\] 3.689e-01
*DRIVER lmu1_soc\[10\]
*CELL NULL
*C2_R1_C1 1.845e-01 2.192e-02 1.845e-01 
*LOADS
*RC DP_OP_26J1_122_5989/U42:CI 8.089e-03
*END

*R_NET lmu1_soc\[9\] 4.427e-01
*DRIVER lmu1_soc\[9\]
*CELL NULL
*C2_R1_C1 2.214e-01 2.192e-02 2.214e-01 
*LOADS
*RC DP_OP_26J1_122_5989/U59:CI 9.706e-03
*END

*R_NET lmu1_soc\[8\] 4.427e-01
*DRIVER lmu1_soc\[8\]
*CELL NULL
*C2_R1_C1 2.214e-01 2.192e-02 2.214e-01 
*LOADS
*RC DP_OP_26J1_122_5989/U58:CI 9.706e-03
*END

*R_NET lmu1_soc\[7\] 3.689e-01
*DRIVER lmu1_soc\[7\]
*CELL NULL
*C2_R1_C1 1.845e-01 2.192e-02 1.845e-01 
*LOADS
*RC DP_OP_26J1_122_5989/U43:CI 8.089e-03
*END

*R_NET lmu1_soc\[6\] 4.427e-01
*DRIVER lmu1_soc\[6\]
*CELL NULL
*C2_R1_C1 2.214e-01 2.192e-02 2.214e-01 
*LOADS
*RC DP_OP_26J1_122_5989/U57:CI 9.706e-03
*END

*R_NET lmu1_soc\[5\] 4.427e-01
*DRIVER lmu1_soc\[5\]
*CELL NULL
*C2_R1_C1 2.214e-01 2.192e-02 2.214e-01 
*LOADS
*RC DP_OP_26J1_122_5989/U56:CI 9.706e-03
*END

*R_NET lmu1_soc\[4\] 3.689e-01
*DRIVER lmu1_soc\[4\]
*CELL NULL
*C2_R1_C1 1.845e-01 2.192e-02 1.845e-01 
*LOADS
*RC DP_OP_26J1_122_5989/U44:CI 8.089e-03
*END

*R_NET lmu1_soc\[3\] 4.427e-01
*DRIVER lmu1_soc\[3\]
*CELL NULL
*C2_R1_C1 2.214e-01 2.192e-02 2.214e-01 
*LOADS
*RC DP_OP_26J1_122_5989/U55:CI 9.706e-03
*END

*R_NET lmu1_soc\[2\] 4.427e-01
*DRIVER lmu1_soc\[2\]
*CELL NULL
*C2_R1_C1 2.214e-01 2.192e-02 2.214e-01 
*LOADS
*RC DP_OP_26J1_122_5989/U54:CI 9.706e-03
*END

*R_NET lmu1_soc\[1\] 5.335e-01
*DRIVER lmu1_soc\[1\]
*CELL NULL
*C2_R1_C1 2.668e-01 2.192e-02 2.668e-01 
*LOADS
*RC DP_OP_26J1_122_5989/U53:B 1.170e-02
*END

*R_NET lmu1_soc\[0\] 5.313e-01
*DRIVER lmu1_soc\[0\]
*CELL NULL
*C2_R1_C1 2.657e-01 2.192e-02 2.657e-01 
*LOADS
*RC DP_OP_26J1_122_5989/U37:B 1.165e-02
*END

*R_NET lmu2_soc\[15\] 4.089e-01
*DRIVER lmu2_soc\[15\]
*CELL NULL
*C2_R1_C1 2.045e-01 2.192e-02 2.045e-01 
*LOADS
*RC DP_OP_26J1_122_5989/U66:A2 8.966e-03
*END

*R_NET lmu2_soc\[14\] 5.313e-01
*DRIVER lmu2_soc\[14\]
*CELL NULL
*C2_R1_C1 2.657e-01 2.192e-02 2.657e-01 
*LOADS
*RC DP_OP_26J1_122_5989/U39:B 1.165e-02
*END

*R_NET lmu2_soc\[13\] 8.534e-01
*DRIVER lmu2_soc\[13\]
*CELL NULL
*C2_R1_C1 4.267e-01 2.192e-02 4.267e-01 
*LOADS
*RC DP_OP_26J1_122_5989/U64:B 1.871e-02
*END

*R_NET lmu2_soc\[12\] 8.534e-01
*DRIVER lmu2_soc\[12\]
*CELL NULL
*C2_R1_C1 4.267e-01 2.192e-02 4.267e-01 
*LOADS
*RC DP_OP_26J1_122_5989/U60:B 1.871e-02
*END

*R_NET lmu2_soc\[11\] 5.313e-01
*DRIVER lmu2_soc\[11\]
*CELL NULL
*C2_R1_C1 2.657e-01 2.192e-02 2.657e-01 
*LOADS
*RC DP_OP_26J1_122_5989/U40:B 1.165e-02
*END

*R_NET lmu2_soc\[10\] 5.313e-01
*DRIVER lmu2_soc\[10\]
*CELL NULL
*C2_R1_C1 2.657e-01 2.192e-02 2.657e-01 
*LOADS
*RC DP_OP_26J1_122_5989/U42:B 1.165e-02
*END

*R_NET lmu2_soc\[9\] 8.534e-01
*DRIVER lmu2_soc\[9\]
*CELL NULL
*C2_R1_C1 4.267e-01 2.192e-02 4.267e-01 
*LOADS
*RC DP_OP_26J1_122_5989/U59:B 1.871e-02
*END

*R_NET lmu2_soc\[8\] 8.534e-01
*DRIVER lmu2_soc\[8\]
*CELL NULL
*C2_R1_C1 4.267e-01 2.192e-02 4.267e-01 
*LOADS
*RC DP_OP_26J1_122_5989/U58:B 1.871e-02
*END

*R_NET lmu2_soc\[7\] 5.313e-01
*DRIVER lmu2_soc\[7\]
*CELL NULL
*C2_R1_C1 2.657e-01 2.192e-02 2.657e-01 
*LOADS
*RC DP_OP_26J1_122_5989/U43:B 1.165e-02
*END

*R_NET lmu2_soc\[6\] 8.534e-01
*DRIVER lmu2_soc\[6\]
*CELL NULL
*C2_R1_C1 4.267e-01 2.192e-02 4.267e-01 
*LOADS
*RC DP_OP_26J1_122_5989/U57:B 1.871e-02
*END

*R_NET lmu2_soc\[5\] 8.534e-01
*DRIVER lmu2_soc\[5\]
*CELL NULL
*C2_R1_C1 4.267e-01 2.192e-02 4.267e-01 
*LOADS
*RC DP_OP_26J1_122_5989/U56:B 1.871e-02
*END

*R_NET lmu2_soc\[4\] 5.313e-01
*DRIVER lmu2_soc\[4\]
*CELL NULL
*C2_R1_C1 2.657e-01 2.192e-02 2.657e-01 
*LOADS
*RC DP_OP_26J1_122_5989/U44:B 1.165e-02
*END

*R_NET lmu2_soc\[3\] 8.534e-01
*DRIVER lmu2_soc\[3\]
*CELL NULL
*C2_R1_C1 4.267e-01 2.192e-02 4.267e-01 
*LOADS
*RC DP_OP_26J1_122_5989/U55:B 1.871e-02
*END

*R_NET lmu2_soc\[2\] 8.534e-01
*DRIVER lmu2_soc\[2\]
*CELL NULL
*C2_R1_C1 4.267e-01 2.192e-02 4.267e-01 
*LOADS
*RC DP_OP_26J1_122_5989/U54:B 1.871e-02
*END

*R_NET lmu2_soc\[1\] 3.689e-01
*DRIVER lmu2_soc\[1\]
*CELL NULL
*C2_R1_C1 1.845e-01 2.192e-02 1.845e-01 
*LOADS
*RC DP_OP_26J1_122_5989/U36:CI 8.089e-03
*END

*R_NET lmu2_soc\[0\] 2.716e-01
*DRIVER lmu2_soc\[0\]
*CELL NULL
*C2_R1_C1 1.358e-01 2.192e-02 1.358e-01 
*LOADS
*RC DP_OP_26J1_122_5989/U37:A 5.955e-03
*END

*R_NET lmu0_soh\[15\] 2.155e-01
*DRIVER lmu0_soh\[15\]
*CELL NULL
*C2_R1_C1 1.077e-01 2.192e-02 1.077e-01 
*LOADS
*RC DP_OP_27J1_123_5989/U66:A1 4.724e-03
*END

*R_NET lmu0_soh\[14\] 2.716e-01
*DRIVER lmu0_soh\[14\]
*CELL NULL
*C2_R1_C1 1.358e-01 2.192e-02 1.358e-01 
*LOADS
*RC DP_OP_27J1_123_5989/U39:A 5.955e-03
*END

*R_NET lmu0_soh\[13\] 6.727e-01
*DRIVER lmu0_soh\[13\]
*CELL NULL
*C2_R1_C1 3.363e-01 2.192e-02 3.363e-01 
*LOADS
*RC DP_OP_27J1_123_5989/U64:A 1.475e-02
*END

*R_NET lmu0_soh\[12\] 6.727e-01
*DRIVER lmu0_soh\[12\]
*CELL NULL
*C2_R1_C1 3.363e-01 2.192e-02 3.363e-01 
*LOADS
*RC DP_OP_27J1_123_5989/U60:A 1.475e-02
*END

*R_NET lmu0_soh\[11\] 2.716e-01
*DRIVER lmu0_soh\[11\]
*CELL NULL
*C2_R1_C1 1.358e-01 2.192e-02 1.358e-01 
*LOADS
*RC DP_OP_27J1_123_5989/U40:A 5.955e-03
*END

*R_NET lmu0_soh\[10\] 2.716e-01
*DRIVER lmu0_soh\[10\]
*CELL NULL
*C2_R1_C1 1.358e-01 2.192e-02 1.358e-01 
*LOADS
*RC DP_OP_27J1_123_5989/U42:A 5.955e-03
*END

*R_NET lmu0_soh\[9\] 6.727e-01
*DRIVER lmu0_soh\[9\]
*CELL NULL
*C2_R1_C1 3.363e-01 2.192e-02 3.363e-01 
*LOADS
*RC DP_OP_27J1_123_5989/U59:A 1.475e-02
*END

*R_NET lmu0_soh\[8\] 6.727e-01
*DRIVER lmu0_soh\[8\]
*CELL NULL
*C2_R1_C1 3.363e-01 2.192e-02 3.363e-01 
*LOADS
*RC DP_OP_27J1_123_5989/U58:A 1.475e-02
*END

*R_NET lmu0_soh\[7\] 2.716e-01
*DRIVER lmu0_soh\[7\]
*CELL NULL
*C2_R1_C1 1.358e-01 2.192e-02 1.358e-01 
*LOADS
*RC DP_OP_27J1_123_5989/U43:A 5.955e-03
*END

*R_NET lmu0_soh\[6\] 6.727e-01
*DRIVER lmu0_soh\[6\]
*CELL NULL
*C2_R1_C1 3.363e-01 2.192e-02 3.363e-01 
*LOADS
*RC DP_OP_27J1_123_5989/U57:A 1.475e-02
*END

*R_NET lmu0_soh\[5\] 6.727e-01
*DRIVER lmu0_soh\[5\]
*CELL NULL
*C2_R1_C1 3.363e-01 2.192e-02 3.363e-01 
*LOADS
*RC DP_OP_27J1_123_5989/U56:A 1.475e-02
*END

*R_NET lmu0_soh\[4\] 2.716e-01
*DRIVER lmu0_soh\[4\]
*CELL NULL
*C2_R1_C1 1.358e-01 2.192e-02 1.358e-01 
*LOADS
*RC DP_OP_27J1_123_5989/U44:A 5.955e-03
*END

*R_NET lmu0_soh\[3\] 6.727e-01
*DRIVER lmu0_soh\[3\]
*CELL NULL
*C2_R1_C1 3.363e-01 2.192e-02 3.363e-01 
*LOADS
*RC DP_OP_27J1_123_5989/U55:A 1.475e-02
*END

*R_NET lmu0_soh\[2\] 6.727e-01
*DRIVER lmu0_soh\[2\]
*CELL NULL
*C2_R1_C1 3.363e-01 2.192e-02 3.363e-01 
*LOADS
*RC DP_OP_27J1_123_5989/U54:A 1.475e-02
*END

*R_NET lmu0_soh\[1\] 5.593e-01
*DRIVER lmu0_soh\[1\]
*CELL NULL
*C2_R1_C1 2.796e-01 2.192e-02 2.796e-01 
*LOADS
*RC DP_OP_27J1_123_5989/U53:A 1.226e-02
*END

*R_NET lmu0_soh\[0\] 3.689e-01
*DRIVER lmu0_soh\[0\]
*CELL NULL
*C2_R1_C1 1.845e-01 2.192e-02 1.845e-01 
*LOADS
*RC DP_OP_27J1_123_5989/U37:CI 8.089e-03
*END

*R_NET lmu1_soh\[15\] 2.412e-01
*DRIVER lmu1_soh\[15\]
*CELL NULL
*C2_R1_C1 1.206e-01 2.192e-02 1.206e-01 
*LOADS
*RC DP_OP_27J1_123_5989/U66:A3 5.287e-03
*END

*R_NET lmu1_soh\[14\] 3.689e-01
*DRIVER lmu1_soh\[14\]
*CELL NULL
*C2_R1_C1 1.845e-01 2.192e-02 1.845e-01 
*LOADS
*RC DP_OP_27J1_123_5989/U39:CI 8.089e-03
*END

*R_NET lmu1_soh\[13\] 4.427e-01
*DRIVER lmu1_soh\[13\]
*CELL NULL
*C2_R1_C1 2.214e-01 2.192e-02 2.214e-01 
*LOADS
*RC DP_OP_27J1_123_5989/U64:CI 9.706e-03
*END

*R_NET lmu1_soh\[12\] 4.427e-01
*DRIVER lmu1_soh\[12\]
*CELL NULL
*C2_R1_C1 2.214e-01 2.192e-02 2.214e-01 
*LOADS
*RC DP_OP_27J1_123_5989/U60:CI 9.706e-03
*END

*R_NET lmu1_soh\[11\] 3.689e-01
*DRIVER lmu1_soh\[11\]
*CELL NULL
*C2_R1_C1 1.845e-01 2.192e-02 1.845e-01 
*LOADS
*RC DP_OP_27J1_123_5989/U40:CI 8.089e-03
*END

*R_NET lmu1_soh\[10\] 3.689e-01
*DRIVER lmu1_soh\[10\]
*CELL NULL
*C2_R1_C1 1.845e-01 2.192e-02 1.845e-01 
*LOADS
*RC DP_OP_27J1_123_5989/U42:CI 8.089e-03
*END

*R_NET lmu1_soh\[9\] 4.427e-01
*DRIVER lmu1_soh\[9\]
*CELL NULL
*C2_R1_C1 2.214e-01 2.192e-02 2.214e-01 
*LOADS
*RC DP_OP_27J1_123_5989/U59:CI 9.706e-03
*END

*R_NET lmu1_soh\[8\] 4.427e-01
*DRIVER lmu1_soh\[8\]
*CELL NULL
*C2_R1_C1 2.214e-01 2.192e-02 2.214e-01 
*LOADS
*RC DP_OP_27J1_123_5989/U58:CI 9.706e-03
*END

*R_NET lmu1_soh\[7\] 3.689e-01
*DRIVER lmu1_soh\[7\]
*CELL NULL
*C2_R1_C1 1.845e-01 2.192e-02 1.845e-01 
*LOADS
*RC DP_OP_27J1_123_5989/U43:CI 8.089e-03
*END

*R_NET lmu1_soh\[6\] 4.427e-01
*DRIVER lmu1_soh\[6\]
*CELL NULL
*C2_R1_C1 2.214e-01 2.192e-02 2.214e-01 
*LOADS
*RC DP_OP_27J1_123_5989/U57:CI 9.706e-03
*END

*R_NET lmu1_soh\[5\] 4.427e-01
*DRIVER lmu1_soh\[5\]
*CELL NULL
*C2_R1_C1 2.214e-01 2.192e-02 2.214e-01 
*LOADS
*RC DP_OP_27J1_123_5989/U56:CI 9.706e-03
*END

*R_NET lmu1_soh\[4\] 3.689e-01
*DRIVER lmu1_soh\[4\]
*CELL NULL
*C2_R1_C1 1.845e-01 2.192e-02 1.845e-01 
*LOADS
*RC DP_OP_27J1_123_5989/U44:CI 8.089e-03
*END

*R_NET lmu1_soh\[3\] 4.427e-01
*DRIVER lmu1_soh\[3\]
*CELL NULL
*C2_R1_C1 2.214e-01 2.192e-02 2.214e-01 
*LOADS
*RC DP_OP_27J1_123_5989/U55:CI 9.706e-03
*END

*R_NET lmu1_soh\[2\] 4.427e-01
*DRIVER lmu1_soh\[2\]
*CELL NULL
*C2_R1_C1 2.214e-01 2.192e-02 2.214e-01 
*LOADS
*RC DP_OP_27J1_123_5989/U54:CI 9.706e-03
*END

*R_NET lmu1_soh\[1\] 5.335e-01
*DRIVER lmu1_soh\[1\]
*CELL NULL
*C2_R1_C1 2.668e-01 2.192e-02 2.668e-01 
*LOADS
*RC DP_OP_27J1_123_5989/U53:B 1.170e-02
*END

*R_NET lmu1_soh\[0\] 5.313e-01
*DRIVER lmu1_soh\[0\]
*CELL NULL
*C2_R1_C1 2.657e-01 2.192e-02 2.657e-01 
*LOADS
*RC DP_OP_27J1_123_5989/U37:B 1.165e-02
*END

*R_NET lmu2_soh\[15\] 4.089e-01
*DRIVER lmu2_soh\[15\]
*CELL NULL
*C2_R1_C1 2.045e-01 2.192e-02 2.045e-01 
*LOADS
*RC DP_OP_27J1_123_5989/U66:A2 8.966e-03
*END

*R_NET lmu2_soh\[14\] 5.313e-01
*DRIVER lmu2_soh\[14\]
*CELL NULL
*C2_R1_C1 2.657e-01 2.192e-02 2.657e-01 
*LOADS
*RC DP_OP_27J1_123_5989/U39:B 1.165e-02
*END

*R_NET lmu2_soh\[13\] 8.534e-01
*DRIVER lmu2_soh\[13\]
*CELL NULL
*C2_R1_C1 4.267e-01 2.192e-02 4.267e-01 
*LOADS
*RC DP_OP_27J1_123_5989/U64:B 1.871e-02
*END

*R_NET lmu2_soh\[12\] 8.534e-01
*DRIVER lmu2_soh\[12\]
*CELL NULL
*C2_R1_C1 4.267e-01 2.192e-02 4.267e-01 
*LOADS
*RC DP_OP_27J1_123_5989/U60:B 1.871e-02
*END

*R_NET lmu2_soh\[11\] 5.313e-01
*DRIVER lmu2_soh\[11\]
*CELL NULL
*C2_R1_C1 2.657e-01 2.192e-02 2.657e-01 
*LOADS
*RC DP_OP_27J1_123_5989/U40:B 1.165e-02
*END

*R_NET lmu2_soh\[10\] 5.313e-01
*DRIVER lmu2_soh\[10\]
*CELL NULL
*C2_R1_C1 2.657e-01 2.192e-02 2.657e-01 
*LOADS
*RC DP_OP_27J1_123_5989/U42:B 1.165e-02
*END

*R_NET lmu2_soh\[9\] 8.534e-01
*DRIVER lmu2_soh\[9\]
*CELL NULL
*C2_R1_C1 4.267e-01 2.192e-02 4.267e-01 
*LOADS
*RC DP_OP_27J1_123_5989/U59:B 1.871e-02
*END

*R_NET lmu2_soh\[8\] 8.534e-01
*DRIVER lmu2_soh\[8\]
*CELL NULL
*C2_R1_C1 4.267e-01 2.192e-02 4.267e-01 
*LOADS
*RC DP_OP_27J1_123_5989/U58:B 1.871e-02
*END

*R_NET lmu2_soh\[7\] 5.313e-01
*DRIVER lmu2_soh\[7\]
*CELL NULL
*C2_R1_C1 2.657e-01 2.192e-02 2.657e-01 
*LOADS
*RC DP_OP_27J1_123_5989/U43:B 1.165e-02
*END

*R_NET lmu2_soh\[6\] 8.534e-01
*DRIVER lmu2_soh\[6\]
*CELL NULL
*C2_R1_C1 4.267e-01 2.192e-02 4.267e-01 
*LOADS
*RC DP_OP_27J1_123_5989/U57:B 1.871e-02
*END

*R_NET lmu2_soh\[5\] 8.534e-01
*DRIVER lmu2_soh\[5\]
*CELL NULL
*C2_R1_C1 4.267e-01 2.192e-02 4.267e-01 
*LOADS
*RC DP_OP_27J1_123_5989/U56:B 1.871e-02
*END

*R_NET lmu2_soh\[4\] 5.313e-01
*DRIVER lmu2_soh\[4\]
*CELL NULL
*C2_R1_C1 2.657e-01 2.192e-02 2.657e-01 
*LOADS
*RC DP_OP_27J1_123_5989/U44:B 1.165e-02
*END

*R_NET lmu2_soh\[3\] 8.534e-01
*DRIVER lmu2_soh\[3\]
*CELL NULL
*C2_R1_C1 4.267e-01 2.192e-02 4.267e-01 
*LOADS
*RC DP_OP_27J1_123_5989/U55:B 1.871e-02
*END

*R_NET lmu2_soh\[2\] 8.534e-01
*DRIVER lmu2_soh\[2\]
*CELL NULL
*C2_R1_C1 4.267e-01 2.192e-02 4.267e-01 
*LOADS
*RC DP_OP_27J1_123_5989/U54:B 1.871e-02
*END

*R_NET lmu2_soh\[1\] 3.689e-01
*DRIVER lmu2_soh\[1\]
*CELL NULL
*C2_R1_C1 1.845e-01 2.192e-02 1.845e-01 
*LOADS
*RC DP_OP_27J1_123_5989/U36:CI 8.089e-03
*END

*R_NET lmu2_soh\[0\] 2.716e-01
*DRIVER lmu2_soh\[0\]
*CELL NULL
*C2_R1_C1 1.358e-01 2.192e-02 1.358e-01 
*LOADS
*RC DP_OP_27J1_123_5989/U37:A 5.955e-03
*END

*R_NET lmu0_fault 1.586e-01
*DRIVER lmu0_fault
*CELL NULL
*C2_R1_C1 7.928e-02 2.192e-02 7.928e-02 
*LOADS
*RC U149:A 3.476e-03
*END

*R_NET lmu1_fault 4.934e-01
*DRIVER lmu1_fault
*CELL NULL
*C2_R1_C1 2.467e-01 5.002e-02 2.467e-01 
*LOADS
*RC U214:A1 4.814e-03
*RC U224:B 7.525e-03
*END

*R_NET lmu2_fault 4.908e-01
*DRIVER lmu2_fault
*CELL NULL
*C2_R1_C1 2.454e-01 5.002e-02 2.454e-01 
*LOADS
*RC U213:A2 6.187e-03
*RC U239:A 6.087e-03
*END

*R_NET lmu0_fault_code\[7\] 1.555e-01
*DRIVER lmu0_fault_code\[7\]
*CELL NULL
*C2_R1_C1 7.773e-02 2.192e-02 7.773e-02 
*LOADS
*RC U225:A2 3.408e-03
*END

*R_NET lmu0_fault_code\[6\] 1.555e-01
*DRIVER lmu0_fault_code\[6\]
*CELL NULL
*C2_R1_C1 7.773e-02 2.192e-02 7.773e-02 
*LOADS
*RC U229:A2 3.408e-03
*END

*R_NET lmu0_fault_code\[5\] 1.555e-01
*DRIVER lmu0_fault_code\[5\]
*CELL NULL
*C2_R1_C1 7.773e-02 2.192e-02 7.773e-02 
*LOADS
*RC U227:A2 3.408e-03
*END

*R_NET lmu0_fault_code\[4\] 1.555e-01
*DRIVER lmu0_fault_code\[4\]
*CELL NULL
*C2_R1_C1 7.773e-02 2.192e-02 7.773e-02 
*LOADS
*RC U231:A2 3.408e-03
*END

*R_NET lmu0_fault_code\[3\] 1.555e-01
*DRIVER lmu0_fault_code\[3\]
*CELL NULL
*C2_R1_C1 7.773e-02 2.192e-02 7.773e-02 
*LOADS
*RC U230:A2 3.408e-03
*END

*R_NET lmu0_fault_code\[2\] 1.555e-01
*DRIVER lmu0_fault_code\[2\]
*CELL NULL
*C2_R1_C1 7.773e-02 2.192e-02 7.773e-02 
*LOADS
*RC U232:A2 3.408e-03
*END

*R_NET lmu0_fault_code\[1\] 1.555e-01
*DRIVER lmu0_fault_code\[1\]
*CELL NULL
*C2_R1_C1 7.773e-02 2.192e-02 7.773e-02 
*LOADS
*RC U226:A2 3.408e-03
*END

*R_NET lmu0_fault_code\[0\] 1.555e-01
*DRIVER lmu0_fault_code\[0\]
*CELL NULL
*C2_R1_C1 7.773e-02 2.192e-02 7.773e-02 
*LOADS
*RC U228:A2 3.408e-03
*END

*R_NET lmu1_fault_code\[7\] 4.249e-01
*DRIVER lmu1_fault_code\[7\]
*CELL NULL
*C2_R1_C1 2.125e-01 2.192e-02 2.125e-01 
*LOADS
*RC U225:C2 9.316e-03
*END

*R_NET lmu1_fault_code\[6\] 2.845e-01
*DRIVER lmu1_fault_code\[6\]
*CELL NULL
*C2_R1_C1 1.423e-01 2.192e-02 1.423e-01 
*LOADS
*RC U229:B2 6.238e-03
*END

*R_NET lmu1_fault_code\[5\] 2.845e-01
*DRIVER lmu1_fault_code\[5\]
*CELL NULL
*C2_R1_C1 1.423e-01 2.192e-02 1.423e-01 
*LOADS
*RC U227:B2 6.238e-03
*END

*R_NET lmu1_fault_code\[4\] 2.845e-01
*DRIVER lmu1_fault_code\[4\]
*CELL NULL
*C2_R1_C1 1.423e-01 2.192e-02 1.423e-01 
*LOADS
*RC U231:B2 6.238e-03
*END

*R_NET lmu1_fault_code\[3\] 2.845e-01
*DRIVER lmu1_fault_code\[3\]
*CELL NULL
*C2_R1_C1 1.423e-01 2.192e-02 1.423e-01 
*LOADS
*RC U230:B2 6.238e-03
*END

*R_NET lmu1_fault_code\[2\] 2.845e-01
*DRIVER lmu1_fault_code\[2\]
*CELL NULL
*C2_R1_C1 1.423e-01 2.192e-02 1.423e-01 
*LOADS
*RC U232:B2 6.238e-03
*END

*R_NET lmu1_fault_code\[1\] 2.845e-01
*DRIVER lmu1_fault_code\[1\]
*CELL NULL
*C2_R1_C1 1.423e-01 2.192e-02 1.423e-01 
*LOADS
*RC U226:B2 6.238e-03
*END

*R_NET lmu1_fault_code\[0\] 2.845e-01
*DRIVER lmu1_fault_code\[0\]
*CELL NULL
*C2_R1_C1 1.423e-01 2.192e-02 1.423e-01 
*LOADS
*RC U228:B2 6.238e-03
*END

*R_NET lmu2_fault_code\[7\] 2.540e-01
*DRIVER lmu2_fault_code\[7\]
*CELL NULL
*C2_R1_C1 1.270e-01 2.192e-02 1.270e-01 
*LOADS
*RC U225:B1 5.568e-03
*END

*R_NET lmu2_fault_code\[6\] 4.249e-01
*DRIVER lmu2_fault_code\[6\]
*CELL NULL
*C2_R1_C1 2.125e-01 2.192e-02 2.125e-01 
*LOADS
*RC U229:C2 9.316e-03
*END

*R_NET lmu2_fault_code\[5\] 4.249e-01
*DRIVER lmu2_fault_code\[5\]
*CELL NULL
*C2_R1_C1 2.125e-01 2.192e-02 2.125e-01 
*LOADS
*RC U227:C2 9.316e-03
*END

*R_NET lmu2_fault_code\[4\] 4.249e-01
*DRIVER lmu2_fault_code\[4\]
*CELL NULL
*C2_R1_C1 2.125e-01 2.192e-02 2.125e-01 
*LOADS
*RC U231:C2 9.316e-03
*END

*R_NET lmu2_fault_code\[3\] 4.249e-01
*DRIVER lmu2_fault_code\[3\]
*CELL NULL
*C2_R1_C1 2.125e-01 2.192e-02 2.125e-01 
*LOADS
*RC U230:C2 9.316e-03
*END

*R_NET lmu2_fault_code\[2\] 4.249e-01
*DRIVER lmu2_fault_code\[2\]
*CELL NULL
*C2_R1_C1 2.125e-01 2.192e-02 2.125e-01 
*LOADS
*RC U232:C2 9.316e-03
*END

*R_NET lmu2_fault_code\[1\] 4.249e-01
*DRIVER lmu2_fault_code\[1\]
*CELL NULL
*C2_R1_C1 2.125e-01 2.192e-02 2.125e-01 
*LOADS
*RC U226:C2 9.316e-03
*END

*R_NET lmu2_fault_code\[0\] 4.249e-01
*DRIVER lmu2_fault_code\[0\]
*CELL NULL
*C2_R1_C1 2.125e-01 2.192e-02 2.125e-01 
*LOADS
*RC U228:C2 9.316e-03
*END

*R_NET spi_sclk 5.618e+00
*DRIVER u_spi_master/sclk_reg:Q
*CELL SAEDRVT14_FSDPRBQ_V2LP_2
*C2_R1_C1 2.809e+00 1.158e-01 2.809e+00 
*LOADS
*RC u_spi_master/U4:D0 6.277e-03
*RC u_spi_master/B_3:A 6.830e-03
*RC u_spi_master/I_4:A 4.629e-03
*RC spi_sclk 1.449e-01
*END

*R_NET spi_mosi 5.004e+00
*DRIVER u_spi_master/mosi_reg:Q
*CELL SAEDRVT14_FSDPRBQ_V2LP_2
*C2_R1_C1 2.502e+00 2.192e-02 2.502e+00 
*LOADS
*RC spi_mosi 1.097e-01
*END

*R_NET pack_soc_avg\[14\] 5.004e+00
*DRIVER pack_soc_avg_reg_14_:Q
*CELL SAEDRVT14_FSDPRBQ_V2LP_2
*C2_R1_C1 2.502e+00 2.192e-02 2.502e+00 
*LOADS
*RC pack_soc_avg\[14\] 1.097e-01
*END

*R_NET pack_soc_avg\[13\] 5.004e+00
*DRIVER pack_soc_avg_reg_13_:Q
*CELL SAEDRVT14_FSDPRBQ_V2LP_2
*C2_R1_C1 2.502e+00 2.192e-02 2.502e+00 
*LOADS
*RC pack_soc_avg\[13\] 1.097e-01
*END

*R_NET pack_soc_avg\[12\] 5.004e+00
*DRIVER pack_soc_avg_reg_12_:Q
*CELL SAEDRVT14_FSDPRBQ_V2LP_2
*C2_R1_C1 2.502e+00 2.192e-02 2.502e+00 
*LOADS
*RC pack_soc_avg\[12\] 1.097e-01
*END

*R_NET pack_soc_avg\[11\] 5.004e+00
*DRIVER pack_soc_avg_reg_11_:Q
*CELL SAEDRVT14_FSDPRBQ_V2LP_2
*C2_R1_C1 2.502e+00 2.192e-02 2.502e+00 
*LOADS
*RC pack_soc_avg\[11\] 1.097e-01
*END

*R_NET pack_soc_avg\[10\] 5.004e+00
*DRIVER pack_soc_avg_reg_10_:Q
*CELL SAEDRVT14_FSDPRBQ_V2LP_2
*C2_R1_C1 2.502e+00 2.192e-02 2.502e+00 
*LOADS
*RC pack_soc_avg\[10\] 1.097e-01
*END

*R_NET pack_soc_avg\[9\] 5.004e+00
*DRIVER pack_soc_avg_reg_9_:Q
*CELL SAEDRVT14_FSDPRBQ_V2LP_2
*C2_R1_C1 2.502e+00 2.192e-02 2.502e+00 
*LOADS
*RC pack_soc_avg\[9\] 1.097e-01
*END

*R_NET pack_soc_avg\[8\] 5.004e+00
*DRIVER pack_soc_avg_reg_8_:Q
*CELL SAEDRVT14_FSDPRBQ_V2LP_2
*C2_R1_C1 2.502e+00 2.192e-02 2.502e+00 
*LOADS
*RC pack_soc_avg\[8\] 1.097e-01
*END

*R_NET pack_soc_avg\[7\] 5.004e+00
*DRIVER pack_soc_avg_reg_7_:Q
*CELL SAEDRVT14_FSDPRBQ_V2LP_2
*C2_R1_C1 2.502e+00 2.192e-02 2.502e+00 
*LOADS
*RC pack_soc_avg\[7\] 1.097e-01
*END

*R_NET pack_soc_avg\[6\] 5.004e+00
*DRIVER pack_soc_avg_reg_6_:Q
*CELL SAEDRVT14_FSDPRBQ_V2LP_2
*C2_R1_C1 2.502e+00 2.192e-02 2.502e+00 
*LOADS
*RC pack_soc_avg\[6\] 1.097e-01
*END

*R_NET pack_soc_avg\[5\] 5.004e+00
*DRIVER pack_soc_avg_reg_5_:Q
*CELL SAEDRVT14_FSDPRBQ_V2LP_2
*C2_R1_C1 2.502e+00 2.192e-02 2.502e+00 
*LOADS
*RC pack_soc_avg\[5\] 1.097e-01
*END

*R_NET pack_soc_avg\[4\] 5.004e+00
*DRIVER pack_soc_avg_reg_4_:Q
*CELL SAEDRVT14_FSDPRBQ_V2LP_2
*C2_R1_C1 2.502e+00 2.192e-02 2.502e+00 
*LOADS
*RC pack_soc_avg\[4\] 1.097e-01
*END

*R_NET pack_soc_avg\[3\] 5.004e+00
*DRIVER pack_soc_avg_reg_3_:Q
*CELL SAEDRVT14_FSDPRBQ_V2LP_2
*C2_R1_C1 2.502e+00 2.192e-02 2.502e+00 
*LOADS
*RC pack_soc_avg\[3\] 1.097e-01
*END

*R_NET pack_soc_avg\[2\] 5.004e+00
*DRIVER pack_soc_avg_reg_2_:Q
*CELL SAEDRVT14_FSDPRBQ_V2LP_2
*C2_R1_C1 2.502e+00 2.192e-02 2.502e+00 
*LOADS
*RC pack_soc_avg\[2\] 1.097e-01
*END

*R_NET pack_soc_avg\[1\] 5.004e+00
*DRIVER pack_soc_avg_reg_1_:Q
*CELL SAEDRVT14_FSDPRBQ_V2LP_2
*C2_R1_C1 2.502e+00 2.192e-02 2.502e+00 
*LOADS
*RC pack_soc_avg\[1\] 1.097e-01
*END

*R_NET pack_soc_avg\[0\] 5.004e+00
*DRIVER pack_soc_avg_reg_0_:Q
*CELL SAEDRVT14_FSDPRBQ_V2LP_2
*C2_R1_C1 2.502e+00 2.192e-02 2.502e+00 
*LOADS
*RC pack_soc_avg\[0\] 1.097e-01
*END

*R_NET pack_soh_avg\[14\] 5.004e+00
*DRIVER pack_soh_avg_reg_14_:Q
*CELL SAEDRVT14_FSDPRBQ_V2LP_2
*C2_R1_C1 2.502e+00 2.192e-02 2.502e+00 
*LOADS
*RC pack_soh_avg\[14\] 1.097e-01
*END

*R_NET pack_soh_avg\[13\] 5.004e+00
*DRIVER pack_soh_avg_reg_13_:Q
*CELL SAEDRVT14_FSDPRBQ_V2LP_2
*C2_R1_C1 2.502e+00 2.192e-02 2.502e+00 
*LOADS
*RC pack_soh_avg\[13\] 1.097e-01
*END

*R_NET pack_soh_avg\[12\] 5.004e+00
*DRIVER pack_soh_avg_reg_12_:Q
*CELL SAEDRVT14_FSDPRBQ_V2LP_2
*C2_R1_C1 2.502e+00 2.192e-02 2.502e+00 
*LOADS
*RC pack_soh_avg\[12\] 1.097e-01
*END

*R_NET pack_soh_avg\[11\] 5.004e+00
*DRIVER pack_soh_avg_reg_11_:Q
*CELL SAEDRVT14_FSDPRBQ_V2LP_2
*C2_R1_C1 2.502e+00 2.192e-02 2.502e+00 
*LOADS
*RC pack_soh_avg\[11\] 1.097e-01
*END

*R_NET pack_soh_avg\[10\] 5.004e+00
*DRIVER pack_soh_avg_reg_10_:Q
*CELL SAEDRVT14_FSDPRBQ_V2LP_2
*C2_R1_C1 2.502e+00 2.192e-02 2.502e+00 
*LOADS
*RC pack_soh_avg\[10\] 1.097e-01
*END

*R_NET pack_soh_avg\[9\] 5.004e+00
*DRIVER pack_soh_avg_reg_9_:Q
*CELL SAEDRVT14_FSDPRBQ_V2LP_2
*C2_R1_C1 2.502e+00 2.192e-02 2.502e+00 
*LOADS
*RC pack_soh_avg\[9\] 1.097e-01
*END

*R_NET pack_soh_avg\[8\] 5.004e+00
*DRIVER pack_soh_avg_reg_8_:Q
*CELL SAEDRVT14_FSDPRBQ_V2LP_2
*C2_R1_C1 2.502e+00 2.192e-02 2.502e+00 
*LOADS
*RC pack_soh_avg\[8\] 1.097e-01
*END

*R_NET pack_soh_avg\[7\] 5.004e+00
*DRIVER pack_soh_avg_reg_7_:Q
*CELL SAEDRVT14_FSDPRBQ_V2LP_2
*C2_R1_C1 2.502e+00 2.192e-02 2.502e+00 
*LOADS
*RC pack_soh_avg\[7\] 1.097e-01
*END

*R_NET pack_soh_avg\[6\] 5.004e+00
*DRIVER pack_soh_avg_reg_6_:Q
*CELL SAEDRVT14_FSDPRBQ_V2LP_2
*C2_R1_C1 2.502e+00 2.192e-02 2.502e+00 
*LOADS
*RC pack_soh_avg\[6\] 1.097e-01
*END

*R_NET pack_soh_avg\[5\] 5.004e+00
*DRIVER pack_soh_avg_reg_5_:Q
*CELL SAEDRVT14_FSDPRBQ_V2LP_2
*C2_R1_C1 2.502e+00 2.192e-02 2.502e+00 
*LOADS
*RC pack_soh_avg\[5\] 1.097e-01
*END

*R_NET pack_soh_avg\[4\] 5.004e+00
*DRIVER pack_soh_avg_reg_4_:Q
*CELL SAEDRVT14_FSDPRBQ_V2LP_2
*C2_R1_C1 2.502e+00 2.192e-02 2.502e+00 
*LOADS
*RC pack_soh_avg\[4\] 1.097e-01
*END

*R_NET pack_soh_avg\[3\] 5.004e+00
*DRIVER pack_soh_avg_reg_3_:Q
*CELL SAEDRVT14_FSDPRBQ_V2LP_2
*C2_R1_C1 2.502e+00 2.192e-02 2.502e+00 
*LOADS
*RC pack_soh_avg\[3\] 1.097e-01
*END

*R_NET pack_soh_avg\[2\] 5.004e+00
*DRIVER pack_soh_avg_reg_2_:Q
*CELL SAEDRVT14_FSDPRBQ_V2LP_2
*C2_R1_C1 2.502e+00 2.192e-02 2.502e+00 
*LOADS
*RC pack_soh_avg\[2\] 1.097e-01
*END

*R_NET pack_soh_avg\[1\] 5.004e+00
*DRIVER pack_soh_avg_reg_1_:Q
*CELL SAEDRVT14_FSDPRBQ_V2LP_2
*C2_R1_C1 2.502e+00 2.192e-02 2.502e+00 
*LOADS
*RC pack_soh_avg\[1\] 1.097e-01
*END

*R_NET pack_soh_avg\[0\] 5.004e+00
*DRIVER pack_soh_avg_reg_0_:Q
*CELL SAEDRVT14_FSDPRBQ_V2LP_2
*C2_R1_C1 2.502e+00 2.192e-02 2.502e+00 
*LOADS
*RC pack_soh_avg\[0\] 1.097e-01
*END

*R_NET n214 1.586e-01
*DRIVER global_fault_reg:Q
*CELL SAEDRVT14_FSDPRBQ_V2LP_2
*C2_R1_C1 7.928e-02 2.192e-02 7.928e-02 
*LOADS
*RC U133:A 3.476e-03
*END

*R_NET global_fault_code\[7\] 5.004e+00
*DRIVER global_fault_code_reg_7_:Q
*CELL SAEDRVT14_FSDPRBQ_V2LP_2
*C2_R1_C1 2.502e+00 2.192e-02 2.502e+00 
*LOADS
*RC global_fault_code\[7\] 1.097e-01
*END

*R_NET global_fault_code\[6\] 5.004e+00
*DRIVER global_fault_code_reg_6_:Q
*CELL SAEDRVT14_FSDPRBQ_V2LP_2
*C2_R1_C1 2.502e+00 2.192e-02 2.502e+00 
*LOADS
*RC global_fault_code\[6\] 1.097e-01
*END

*R_NET global_fault_code\[5\] 5.004e+00
*DRIVER global_fault_code_reg_5_:Q
*CELL SAEDRVT14_FSDPRBQ_V2LP_2
*C2_R1_C1 2.502e+00 2.192e-02 2.502e+00 
*LOADS
*RC global_fault_code\[5\] 1.097e-01
*END

*R_NET global_fault_code\[4\] 5.004e+00
*DRIVER global_fault_code_reg_4_:Q
*CELL SAEDRVT14_FSDPRBQ_V2LP_2
*C2_R1_C1 2.502e+00 2.192e-02 2.502e+00 
*LOADS
*RC global_fault_code\[4\] 1.097e-01
*END

*R_NET global_fault_code\[3\] 5.004e+00
*DRIVER global_fault_code_reg_3_:Q
*CELL SAEDRVT14_FSDPRBQ_V2LP_2
*C2_R1_C1 2.502e+00 2.192e-02 2.502e+00 
*LOADS
*RC global_fault_code\[3\] 1.097e-01
*END

*R_NET global_fault_code\[2\] 5.004e+00
*DRIVER global_fault_code_reg_2_:Q
*CELL SAEDRVT14_FSDPRBQ_V2LP_2
*C2_R1_C1 2.502e+00 2.192e-02 2.502e+00 
*LOADS
*RC global_fault_code\[2\] 1.097e-01
*END

*R_NET global_fault_code\[1\] 5.004e+00
*DRIVER global_fault_code_reg_1_:Q
*CELL SAEDRVT14_FSDPRBQ_V2LP_2
*C2_R1_C1 2.502e+00 2.192e-02 2.502e+00 
*LOADS
*RC global_fault_code\[1\] 1.097e-01
*END

*R_NET global_fault_code\[0\] 5.004e+00
*DRIVER global_fault_code_reg_0_:Q
*CELL SAEDRVT14_FSDPRBQ_V2LP_2
*C2_R1_C1 2.502e+00 2.192e-02 2.502e+00 
*LOADS
*RC global_fault_code\[0\] 1.097e-01
*END

*R_NET n215 1.586e-01
*DRIVER active_lmu_id_reg_1_:Q
*CELL SAEDRVT14_FSDPRBQ_V2_1
*C2_R1_C1 7.928e-02 2.192e-02 7.928e-02 
*LOADS
*RC U165:A 3.476e-03
*END

*R_NET n216 1.586e-01
*DRIVER active_lmu_id_reg_0_:Q
*CELL SAEDRVT14_FSDPRBQ_V2_1
*C2_R1_C1 7.928e-02 2.192e-02 7.928e-02 
*LOADS
*RC U154:A 3.476e-03
*END

*R_NET poll_busy 5.209e+00
*DRIVER poll_busy_reg:Q
*CELL SAEDRVT14_FSDPRBQ_V2LP_2
*C2_R1_C1 2.604e+00 5.002e-02 2.604e+00 
*LOADS
*RC poll_busy 1.252e-01
*RC U223:A2 5.093e-03
*END

*R_NET current_warn 5.004e+00
*DRIVER u_curr_sup/current_warn_reg:Q
*CELL SAEDRVT14_FSDPRBQ_V2LP_2
*C2_R1_C1 2.502e+00 2.192e-02 2.502e+00 
*LOADS
*RC current_warn 1.097e-01
*END

*R_NET current_trip 5.004e+00
*DRIVER u_curr_sup/current_trip_reg:Q
*CELL SAEDRVT14_FSDPRBQ_V2LP_2
*C2_R1_C1 2.502e+00 2.192e-02 2.502e+00 
*LOADS
*RC current_trip 1.097e-01
*END

*R_NET thermal_trip 1.502e+01
*DRIVER u_curr_sup/allowed_current_reg_0_:Q
*CELL SAEDRVT14_FSDPRBQ_V2LP_2
*C2_R1_C1 7.508e+00 8.117e-02 7.508e+00 
*LOADS
*RC allowed_current\[6\] 1.354e-01
*RC allowed_current\[0\] 1.354e-01
*RC thermal_trip 1.354e-01
*END

*R_NET allowed_current\[4\] 1.001e+01
*DRIVER u_curr_sup/allowed_current_reg_4_:Q
*CELL SAEDRVT14_FSDPRBQ_V2LP_2
*C2_R1_C1 5.005e+00 5.002e-02 5.005e+00 
*LOADS
*RC allowed_current\[4\] 1.252e-01
*RC allowed_current\[7\] 1.252e-01
*END

*R_NET allowed_current\[1\] 1.001e+01
*DRIVER u_curr_sup/allowed_current_reg_1_:Q
*CELL SAEDRVT14_FSDPRBQ_V2LP_2
*C2_R1_C1 5.005e+00 5.002e-02 5.005e+00 
*LOADS
*RC allowed_current\[1\] 1.252e-01
*RC thermal_warn 1.252e-01
*END

*R_NET supervisor_code\[6\] 5.004e+00
*DRIVER u_curr_sup/supervisor_code_reg_6_:Q
*CELL SAEDRVT14_FSDPRBQ_V2LP_2
*C2_R1_C1 2.502e+00 2.192e-02 2.502e+00 
*LOADS
*RC supervisor_code\[6\] 1.097e-01
*END

*R_NET supervisor_code\[5\] 1.001e+01
*DRIVER u_curr_sup/supervisor_code_reg_5_:Q
*CELL SAEDRVT14_FSDPRBQ_V2LP_2
*C2_R1_C1 5.005e+00 5.002e-02 5.005e+00 
*LOADS
*RC supervisor_code\[5\] 1.252e-01
*RC supervisor_code\[7\] 1.252e-01
*END

*R_NET supervisor_code\[2\] 5.004e+00
*DRIVER u_curr_sup/supervisor_code_reg_2_:Q
*CELL SAEDRVT14_FSDPRBQ_V2LP_2
*C2_R1_C1 2.502e+00 2.192e-02 2.502e+00 
*LOADS
*RC supervisor_code\[2\] 1.097e-01
*END

*R_NET supervisor_code\[1\] 5.004e+00
*DRIVER u_curr_sup/supervisor_code_reg_1_:Q
*CELL SAEDRVT14_FSDPRBQ_V2LP_2
*C2_R1_C1 2.502e+00 2.192e-02 2.502e+00 
*LOADS
*RC supervisor_code\[1\] 1.097e-01
*END

*R_NET supervisor_code\[0\] 5.004e+00
*DRIVER u_curr_sup/supervisor_code_reg_0_:Q
*CELL SAEDRVT14_FSDPRBQ_V2LP_2
*C2_R1_C1 2.502e+00 2.192e-02 2.502e+00 
*LOADS
*RC supervisor_code\[0\] 1.097e-01
*END

*R_NET n217 1.586e-01
*DRIVER max_temp_seen_reg_11_:Q
*CELL SAEDRVT14_FSDPRBQ_V2LP_2
*C2_R1_C1 7.928e-02 2.192e-02 7.928e-02 
*LOADS
*RC U122:A 3.476e-03
*END

*R_NET n218 1.586e-01
*DRIVER max_temp_seen_reg_10_:Q
*CELL SAEDRVT14_FSDPRBQ_V2LP_2
*C2_R1_C1 7.928e-02 2.192e-02 7.928e-02 
*LOADS
*RC U119:A 3.476e-03
*END

*R_NET max_temp_seen\[9\] 5.251e+00
*DRIVER max_temp_seen_reg_9_:Q
*CELL SAEDRVT14_FSDPRBQ_V2LP_2
*C2_R1_C1 2.625e+00 5.002e-02 2.625e+00 
*LOADS
*RC max_temp_seen\[9\] 1.252e-01
*RC u_curr_sup/U30:A1 6.145e-03
*END

*R_NET max_temp_seen\[8\] 5.285e+00
*DRIVER max_temp_seen_reg_8_:Q
*CELL SAEDRVT14_FSDPRBQ_V2LP_2
*C2_R1_C1 2.643e+00 5.002e-02 2.643e+00 
*LOADS
*RC max_temp_seen\[8\] 1.252e-01
*RC u_curr_sup/U30:A4 7.009e-03
*END

*R_NET max_temp_seen\[7\] 5.251e+00
*DRIVER max_temp_seen_reg_7_:Q
*CELL SAEDRVT14_FSDPRBQ_V2LP_2
*C2_R1_C1 2.625e+00 5.002e-02 2.625e+00 
*LOADS
*RC max_temp_seen\[7\] 1.252e-01
*RC u_curr_sup/U13:A1 6.153e-03
*END

*R_NET n219 1.586e-01
*DRIVER max_temp_seen_reg_6_:Q
*CELL SAEDRVT14_FSDPRBQ_V2LP_2
*C2_R1_C1 7.928e-02 2.192e-02 7.928e-02 
*LOADS
*RC U157:A 3.476e-03
*END

*R_NET max_temp_seen\[5\] 5.255e+00
*DRIVER max_temp_seen_reg_5_:Q
*CELL SAEDRVT14_FSDPRBQ_V2LP_2
*C2_R1_C1 2.628e+00 5.002e-02 2.628e+00 
*LOADS
*RC max_temp_seen\[5\] 1.252e-01
*RC u_curr_sup/U31:A2 6.261e-03
*END

*R_NET max_temp_seen\[4\] 5.213e+00
*DRIVER max_temp_seen_reg_4_:Q
*CELL SAEDRVT14_FSDPRBQ_V2LP_2
*C2_R1_C1 2.607e+00 5.002e-02 2.607e+00 
*LOADS
*RC max_temp_seen\[4\] 1.252e-01
*RC u_curr_sup/U31:B2 5.207e-03
*END

*R_NET n220 1.586e-01
*DRIVER max_temp_seen_reg_3_:Q
*CELL SAEDRVT14_FSDPRBQ_V2LP_2
*C2_R1_C1 7.928e-02 2.192e-02 7.928e-02 
*LOADS
*RC U125:A 3.476e-03
*END

*R_NET max_temp_seen\[2\] 5.287e+00
*DRIVER max_temp_seen_reg_2_:Q
*CELL SAEDRVT14_FSDPRBQ_V2LP_2
*C2_R1_C1 2.644e+00 5.002e-02 2.644e+00 
*LOADS
*RC max_temp_seen\[2\] 1.252e-01
*RC u_curr_sup/U32:A3 7.055e-03
*END

*R_NET max_temp_seen\[1\] 5.285e+00
*DRIVER max_temp_seen_reg_1_:Q
*CELL SAEDRVT14_FSDPRBQ_V2LP_2
*C2_R1_C1 2.643e+00 5.002e-02 2.643e+00 
*LOADS
*RC max_temp_seen\[1\] 1.252e-01
*RC u_curr_sup/U32:A4 7.009e-03
*END

*R_NET max_temp_seen\[0\] 5.251e+00
*DRIVER max_temp_seen_reg_0_:Q
*CELL SAEDRVT14_FSDPRBQ_V2LP_2
*C2_R1_C1 2.625e+00 5.002e-02 2.625e+00 
*LOADS
*RC max_temp_seen\[0\] 1.252e-01
*RC u_curr_sup/U32:A1 6.145e-03
*END

*R_NET spi_start 4.179e-01
*DRIVER spi_start_reg:Q
*CELL SAEDRVT14_FSDPRBQ_V2LP_2
*C2_R1_C1 2.090e-01 5.002e-02 2.090e-01 
*LOADS
*RC u_spi_master/U11:A1 4.381e-03
*RC u_spi_master/U82:A2 6.071e-03
*END

*R_NET spi_tx_byte_4_ 3.211e-01
*DRIVER spi_tx_byte_reg_4_:Q
*CELL SAEDRVT14_FSDPRBQ_V2LP_2
*C2_R1_C1 1.606e-01 2.192e-02 1.606e-01 
*LOADS
*RC u_spi_master/U90:A1 7.040e-03
*END

*R_NET spi_done 4.375e-01
*DRIVER u_spi_master/done_reg:Q
*CELL SAEDRVT14_FSDPRBQ_V2LP_2
*C2_R1_C1 2.188e-01 5.002e-02 2.188e-01 
*LOADS
*RC U234:A1 6.157e-03
*RC U252:A2 5.093e-03
*END

*R_NET state\[2\] 1.277e+00
*DRIVER state_reg_2_:Q
*CELL SAEDRVT14_FSDPRBQ_V2LP_2
*C2_R1_C1 6.383e-01 1.969e-01 6.383e-01 
*LOADS
*RC U221:B 7.164e-03
*RC U234:B 7.164e-03
*RC U217:A1 6.367e-03
*RC U218:A1 6.367e-03
*RC U238:A3 9.412e-03
*RC clk_gate_max_temp_seen_reg/latch:EN 6.514e-03
*END

*R_NET state\[1\] 9.091e-01
*DRIVER state_reg_1_:Q
*CELL SAEDRVT14_FSDPRBQ_V2LP_1
*C2_R1_C1 4.545e-01 1.158e-01 4.545e-01 
*LOADS
*RC U219:A 4.629e-03
*RC U238:A2 7.540e-03
*RC U215:A1 5.092e-03
*RC U216:A1 9.334e-03
*END

*R_NET state\[0\] 8.985e-01
*DRIVER state_reg_0_:Q
*CELL SAEDRVT14_FSDPRBQ_V2LP_2
*C2_R1_C1 4.492e-01 1.158e-01 4.492e-01 
*LOADS
*RC U216:A2 7.048e-03
*RC U218:A2 7.307e-03
*RC U220:A 4.629e-03
*RC U235:A1 7.139e-03
*END

*R_NET N40 4.388e-01
*DRIVER DP_OP_26J1_122_5989/U37:S
*CELL SAEDRVT14_ADDF_V2_0P5
*C2_R1_C1 2.194e-01 5.002e-02 2.194e-01 
*LOADS
*RC div_1/U4:A1 4.727e-03
*RC div_1/U68:A2 6.294e-03
*END

*R_NET N41 1.586e-01
*DRIVER DP_OP_26J1_122_5989/U36:S
*CELL SAEDRVT14_ADDF_V2_0P5
*C2_R1_C1 7.928e-02 2.192e-02 7.928e-02 
*LOADS
*RC div_1/U63:A 3.476e-03
*END

*R_NET N42 7.601e-01
*DRIVER DP_OP_26J1_122_5989/U50:S
*CELL SAEDRVT14_ADDF_V2_0P5
*C2_R1_C1 3.800e-01 8.117e-02 3.800e-01 
*LOADS
*RC div_1/U58:A 4.318e-03
*RC div_1/U62:A2 9.669e-03
*RC div_1/U64:A2 6.579e-03
*END

*R_NET N43 8.385e-01
*DRIVER DP_OP_26J1_122_5989/U49:S
*CELL SAEDRVT14_ADDF_V2_0P5
*C2_R1_C1 4.193e-01 8.117e-02 4.193e-01 
*LOADS
*RC div_1/U53:A 4.318e-03
*RC div_1/U57:A2 9.669e-03
*RC div_1/U59:A1 8.716e-03
*END

*R_NET N44 8.385e-01
*DRIVER DP_OP_26J1_122_5989/U63:S
*CELL SAEDRVT14_ADDF_V1_0P5
*C2_R1_C1 4.193e-01 8.117e-02 4.193e-01 
*LOADS
*RC div_1/U48:A 4.318e-03
*RC div_1/U52:A2 9.669e-03
*RC div_1/U54:A1 8.716e-03
*END

*R_NET N45 7.601e-01
*DRIVER DP_OP_26J1_122_5989/U48:S
*CELL SAEDRVT14_ADDF_V2_0P5
*C2_R1_C1 3.800e-01 8.117e-02 3.800e-01 
*LOADS
*RC div_1/U43:A 4.318e-03
*RC div_1/U47:A2 9.669e-03
*RC div_1/U49:A2 6.579e-03
*END

*R_NET N46 7.601e-01
*DRIVER DP_OP_26J1_122_5989/U47:S
*CELL SAEDRVT14_ADDF_V2_0P5
*C2_R1_C1 3.800e-01 8.117e-02 3.800e-01 
*LOADS
*RC div_1/U38:A 4.318e-03
*RC div_1/U42:A2 9.669e-03
*RC div_1/U44:A2 6.579e-03
*END

*R_NET N47 7.601e-01
*DRIVER DP_OP_26J1_122_5989/U62:S
*CELL SAEDRVT14_ADDF_V1_0P5
*C2_R1_C1 3.800e-01 8.117e-02 3.800e-01 
*LOADS
*RC div_1/U33:A 4.318e-03
*RC div_1/U37:A2 9.669e-03
*RC div_1/U39:A2 6.579e-03
*END

*R_NET N48 7.601e-01
*DRIVER DP_OP_26J1_122_5989/U46:S
*CELL SAEDRVT14_ADDF_V2_0P5
*C2_R1_C1 3.800e-01 8.117e-02 3.800e-01 
*LOADS
*RC div_1/U28:A 4.318e-03
*RC div_1/U32:A2 9.669e-03
*RC div_1/U34:A2 6.579e-03
*END

*R_NET N49 7.601e-01
*DRIVER DP_OP_26J1_122_5989/U45:S
*CELL SAEDRVT14_ADDF_V2_0P5
*C2_R1_C1 3.800e-01 8.117e-02 3.800e-01 
*LOADS
*RC div_1/U23:A 4.318e-03
*RC div_1/U27:A2 9.669e-03
*RC div_1/U29:A2 6.579e-03
*END

*R_NET N50 7.601e-01
*DRIVER DP_OP_26J1_122_5989/U61:S
*CELL SAEDRVT14_ADDF_V1_0P5
*C2_R1_C1 3.800e-01 8.117e-02 3.800e-01 
*LOADS
*RC div_1/U18:A 4.318e-03
*RC div_1/U22:A2 9.669e-03
*RC div_1/U24:A2 6.579e-03
*END

*R_NET N51 7.601e-01
*DRIVER DP_OP_26J1_122_5989/U41:S
*CELL SAEDRVT14_ADDF_V2_0P5
*C2_R1_C1 3.800e-01 8.117e-02 3.800e-01 
*LOADS
*RC div_1/U13:A 4.318e-03
*RC div_1/U17:A2 9.669e-03
*RC div_1/U19:A2 6.579e-03
*END

*R_NET N52 7.601e-01
*DRIVER DP_OP_26J1_122_5989/U52:S
*CELL SAEDRVT14_ADDF_V2_0P5
*C2_R1_C1 3.800e-01 8.117e-02 3.800e-01 
*LOADS
*RC div_1/U7:A 4.318e-03
*RC div_1/U12:A2 9.669e-03
*RC div_1/U14:A2 6.579e-03
*END

*R_NET N53 8.152e-01
*DRIVER DP_OP_26J1_122_5989/U51:S
*CELL SAEDRVT14_ADDF_V2_0P5
*C2_R1_C1 4.076e-01 8.117e-02 4.076e-01 
*LOADS
*RC div_1/U1:B2 6.012e-03
*RC div_1/U6:A2 9.669e-03
*RC div_1/U8:A2 6.579e-03
*END

*R_NET N54 7.031e-01
*DRIVER DP_OP_26J1_122_5989/U65:S
*CELL SAEDRVT14_ADDF_V1_0P5
*C2_R1_C1 3.516e-01 8.117e-02 3.516e-01 
*LOADS
*RC div_1/U1:A2 5.269e-03
*RC div_1/U2:A 7.108e-03
*RC div_1/U3:A2 6.705e-03
*END

*R_NET N55 5.690e-01
*DRIVER DP_OP_26J1_122_5989/U35:X
*CELL SAEDRVT14_EO2_1
*C2_R1_C1 2.845e-01 8.117e-02 2.845e-01 
*LOADS
*RC div_1/U2:B 6.330e-03
*RC div_1/U3:A1 4.751e-03
*RC div_1/U5:A 4.318e-03
*END

*R_NET N56 2.322e-01
*DRIVER div_1/U70:X
*CELL SAEDRVT14_OAI21_0P5
*C2_R1_C1 1.161e-01 2.192e-02 1.161e-01 
*LOADS
*RC pack_soc_avg_reg_0_:D 5.091e-03
*END

*R_NET N57 9.286e-01
*DRIVER div_1/U66:X
*CELL SAEDRVT14_OAI21_0P5
*C2_R1_C1 4.643e-01 1.158e-01 4.643e-01 
*LOADS
*RC div_1/U69:A 7.067e-03
*RC div_1/U68:A1 5.594e-03
*RC div_1/U4:A2 7.645e-03
*RC pack_soc_avg_reg_1_:D 6.761e-03
*END

*R_NET N58 9.142e-01
*DRIVER div_1/U61:X
*CELL SAEDRVT14_OAI21_0P5
*C2_R1_C1 4.571e-01 8.117e-02 4.571e-01 
*LOADS
*RC div_1/U62:A1 9.788e-03
*RC div_1/U64:A1 8.716e-03
*RC pack_soc_avg_reg_2_:D 6.311e-03
*END

*R_NET N59 8.356e-01
*DRIVER div_1/U56:X
*CELL SAEDRVT14_OAI21_0P5
*C2_R1_C1 4.178e-01 8.117e-02 4.178e-01 
*LOADS
*RC div_1/U57:A1 9.788e-03
*RC div_1/U59:A2 6.579e-03
*RC pack_soc_avg_reg_3_:D 6.311e-03
*END

*R_NET N60 8.356e-01
*DRIVER div_1/U51:X
*CELL SAEDRVT14_OAI21_0P5
*C2_R1_C1 4.178e-01 8.117e-02 4.178e-01 
*LOADS
*RC div_1/U52:A1 9.788e-03
*RC div_1/U54:A2 6.579e-03
*RC pack_soc_avg_reg_4_:D 6.311e-03
*END

*R_NET N61 9.142e-01
*DRIVER div_1/U46:X
*CELL SAEDRVT14_OAI21_0P5
*C2_R1_C1 4.571e-01 8.117e-02 4.571e-01 
*LOADS
*RC div_1/U47:A1 9.788e-03
*RC div_1/U49:A1 8.716e-03
*RC pack_soc_avg_reg_5_:D 6.311e-03
*END

*R_NET N62 9.142e-01
*DRIVER div_1/U41:X
*CELL SAEDRVT14_OAI21_0P5
*C2_R1_C1 4.571e-01 8.117e-02 4.571e-01 
*LOADS
*RC div_1/U42:A1 9.788e-03
*RC div_1/U44:A1 8.716e-03
*RC pack_soc_avg_reg_6_:D 6.311e-03
*END

*R_NET N63 9.142e-01
*DRIVER div_1/U36:X
*CELL SAEDRVT14_OAI21_0P5
*C2_R1_C1 4.571e-01 8.117e-02 4.571e-01 
*LOADS
*RC div_1/U37:A1 9.788e-03
*RC div_1/U39:A1 8.716e-03
*RC pack_soc_avg_reg_7_:D 6.311e-03
*END

*R_NET N64 9.142e-01
*DRIVER div_1/U31:X
*CELL SAEDRVT14_OAI21_0P5
*C2_R1_C1 4.571e-01 8.117e-02 4.571e-01 
*LOADS
*RC div_1/U32:A1 9.788e-03
*RC div_1/U34:A1 8.716e-03
*RC pack_soc_avg_reg_8_:D 6.311e-03
*END

*R_NET N65 9.142e-01
*DRIVER div_1/U26:X
*CELL SAEDRVT14_OAI21_0P5
*C2_R1_C1 4.571e-01 8.117e-02 4.571e-01 
*LOADS
*RC div_1/U27:A1 9.788e-03
*RC div_1/U29:A1 8.716e-03
*RC pack_soc_avg_reg_9_:D 6.311e-03
*END

*R_NET N66 9.142e-01
*DRIVER div_1/U21:X
*CELL SAEDRVT14_OAI21_0P5
*C2_R1_C1 4.571e-01 8.117e-02 4.571e-01 
*LOADS
*RC div_1/U22:A1 9.788e-03
*RC div_1/U24:A1 8.716e-03
*RC pack_soc_avg_reg_10_:D 6.311e-03
*END

*R_NET N67 9.142e-01
*DRIVER div_1/U16:X
*CELL SAEDRVT14_OAI21_0P5
*C2_R1_C1 4.571e-01 8.117e-02 4.571e-01 
*LOADS
*RC div_1/U17:A1 9.788e-03
*RC div_1/U19:A1 8.716e-03
*RC pack_soc_avg_reg_11_:D 6.311e-03
*END

*R_NET N68 9.142e-01
*DRIVER div_1/U11:X
*CELL SAEDRVT14_OAI21_0P5
*C2_R1_C1 4.571e-01 8.117e-02 4.571e-01 
*LOADS
*RC div_1/U12:A1 9.788e-03
*RC div_1/U14:A1 8.716e-03
*RC pack_soc_avg_reg_12_:D 6.311e-03
*END

*R_NET N69 9.142e-01
*DRIVER div_1/U1:X
*CELL SAEDRVT14_AO2BB2_V1_0P5
*C2_R1_C1 4.571e-01 8.117e-02 4.571e-01 
*LOADS
*RC div_1/U6:A1 9.788e-03
*RC div_1/U8:A1 8.716e-03
*RC pack_soc_avg_reg_13_:D 6.311e-03
*END

*R_NET N70 2.322e-01
*DRIVER div_1/U3:X
*CELL SAEDRVT14_AN2_0P5
*C2_R1_C1 1.161e-01 2.192e-02 1.161e-01 
*LOADS
*RC pack_soc_avg_reg_14_:D 5.091e-03
*END

*R_NET N88 4.388e-01
*DRIVER DP_OP_27J1_123_5989/U37:S
*CELL SAEDRVT14_ADDF_V2_0P5
*C2_R1_C1 2.194e-01 5.002e-02 2.194e-01 
*LOADS
*RC div_2/U4:A1 4.727e-03
*RC div_2/U68:A2 6.294e-03
*END

*R_NET N89 1.586e-01
*DRIVER DP_OP_27J1_123_5989/U36:S
*CELL SAEDRVT14_ADDF_V2_0P5
*C2_R1_C1 7.928e-02 2.192e-02 7.928e-02 
*LOADS
*RC div_2/U63:A 3.476e-03
*END

*R_NET N90 7.601e-01
*DRIVER DP_OP_27J1_123_5989/U50:S
*CELL SAEDRVT14_ADDF_V2_0P5
*C2_R1_C1 3.800e-01 8.117e-02 3.800e-01 
*LOADS
*RC div_2/U58:A 4.318e-03
*RC div_2/U62:A2 9.669e-03
*RC div_2/U64:A2 6.579e-03
*END

*R_NET N91 8.385e-01
*DRIVER DP_OP_27J1_123_5989/U49:S
*CELL SAEDRVT14_ADDF_V2_0P5
*C2_R1_C1 4.193e-01 8.117e-02 4.193e-01 
*LOADS
*RC div_2/U53:A 4.318e-03
*RC div_2/U57:A2 9.669e-03
*RC div_2/U59:A1 8.716e-03
*END

*R_NET N92 8.385e-01
*DRIVER DP_OP_27J1_123_5989/U63:S
*CELL SAEDRVT14_ADDF_V1_0P5
*C2_R1_C1 4.193e-01 8.117e-02 4.193e-01 
*LOADS
*RC div_2/U48:A 4.318e-03
*RC div_2/U52:A2 9.669e-03
*RC div_2/U54:A1 8.716e-03
*END

*R_NET N93 7.601e-01
*DRIVER DP_OP_27J1_123_5989/U48:S
*CELL SAEDRVT14_ADDF_V2_0P5
*C2_R1_C1 3.800e-01 8.117e-02 3.800e-01 
*LOADS
*RC div_2/U43:A 4.318e-03
*RC div_2/U47:A2 9.669e-03
*RC div_2/U49:A2 6.579e-03
*END

*R_NET N94 7.601e-01
*DRIVER DP_OP_27J1_123_5989/U47:S
*CELL SAEDRVT14_ADDF_V2_0P5
*C2_R1_C1 3.800e-01 8.117e-02 3.800e-01 
*LOADS
*RC div_2/U38:A 4.318e-03
*RC div_2/U42:A2 9.669e-03
*RC div_2/U44:A2 6.579e-03
*END

*R_NET N95 7.601e-01
*DRIVER DP_OP_27J1_123_5989/U62:S
*CELL SAEDRVT14_ADDF_V1_0P5
*C2_R1_C1 3.800e-01 8.117e-02 3.800e-01 
*LOADS
*RC div_2/U33:A 4.318e-03
*RC div_2/U37:A2 9.669e-03
*RC div_2/U39:A2 6.579e-03
*END

*R_NET N96 7.601e-01
*DRIVER DP_OP_27J1_123_5989/U46:S
*CELL SAEDRVT14_ADDF_V2_0P5
*C2_R1_C1 3.800e-01 8.117e-02 3.800e-01 
*LOADS
*RC div_2/U28:A 4.318e-03
*RC div_2/U32:A2 9.669e-03
*RC div_2/U34:A2 6.579e-03
*END

*R_NET N97 7.601e-01
*DRIVER DP_OP_27J1_123_5989/U45:S
*CELL SAEDRVT14_ADDF_V2_0P5
*C2_R1_C1 3.800e-01 8.117e-02 3.800e-01 
*LOADS
*RC div_2/U23:A 4.318e-03
*RC div_2/U27:A2 9.669e-03
*RC div_2/U29:A2 6.579e-03
*END

*R_NET N98 7.601e-01
*DRIVER DP_OP_27J1_123_5989/U61:S
*CELL SAEDRVT14_ADDF_V1_0P5
*C2_R1_C1 3.800e-01 8.117e-02 3.800e-01 
*LOADS
*RC div_2/U18:A 4.318e-03
*RC div_2/U22:A2 9.669e-03
*RC div_2/U24:A2 6.579e-03
*END

*R_NET N99 7.601e-01
*DRIVER DP_OP_27J1_123_5989/U41:S
*CELL SAEDRVT14_ADDF_V2_0P5
*C2_R1_C1 3.800e-01 8.117e-02 3.800e-01 
*LOADS
*RC div_2/U13:A 4.318e-03
*RC div_2/U17:A2 9.669e-03
*RC div_2/U19:A2 6.579e-03
*END

*R_NET N100 7.601e-01
*DRIVER DP_OP_27J1_123_5989/U52:S
*CELL SAEDRVT14_ADDF_V2_0P5
*C2_R1_C1 3.800e-01 8.117e-02 3.800e-01 
*LOADS
*RC div_2/U7:A 4.318e-03
*RC div_2/U12:A2 9.669e-03
*RC div_2/U14:A2 6.579e-03
*END

*R_NET N101 8.152e-01
*DRIVER DP_OP_27J1_123_5989/U51:S
*CELL SAEDRVT14_ADDF_V2_0P5
*C2_R1_C1 4.076e-01 8.117e-02 4.076e-01 
*LOADS
*RC div_2/U1:B2 6.012e-03
*RC div_2/U6:A2 9.669e-03
*RC div_2/U8:A2 6.579e-03
*END

*R_NET N102 7.031e-01
*DRIVER DP_OP_27J1_123_5989/U65:S
*CELL SAEDRVT14_ADDF_V1_0P5
*C2_R1_C1 3.516e-01 8.117e-02 3.516e-01 
*LOADS
*RC div_2/U1:A2 5.269e-03
*RC div_2/U2:A 7.108e-03
*RC div_2/U3:A2 6.705e-03
*END

*R_NET N103 5.690e-01
*DRIVER DP_OP_27J1_123_5989/U35:X
*CELL SAEDRVT14_EO2_1
*C2_R1_C1 2.845e-01 8.117e-02 2.845e-01 
*LOADS
*RC div_2/U2:B 6.330e-03
*RC div_2/U3:A1 4.751e-03
*RC div_2/U5:A 4.318e-03
*END

*R_NET N104 2.322e-01
*DRIVER div_2/U70:X
*CELL SAEDRVT14_OAI21_0P5
*C2_R1_C1 1.161e-01 2.192e-02 1.161e-01 
*LOADS
*RC pack_soh_avg_reg_0_:D 5.091e-03
*END

*R_NET N105 9.286e-01
*DRIVER div_2/U66:X
*CELL SAEDRVT14_OAI21_0P5
*C2_R1_C1 4.643e-01 1.158e-01 4.643e-01 
*LOADS
*RC div_2/U69:A 7.067e-03
*RC div_2/U68:A1 5.594e-03
*RC div_2/U4:A2 7.645e-03
*RC pack_soh_avg_reg_1_:D 6.761e-03
*END

*R_NET N106 9.142e-01
*DRIVER div_2/U61:X
*CELL SAEDRVT14_OAI21_0P5
*C2_R1_C1 4.571e-01 8.117e-02 4.571e-01 
*LOADS
*RC div_2/U62:A1 9.788e-03
*RC div_2/U64:A1 8.716e-03
*RC pack_soh_avg_reg_2_:D 6.311e-03
*END

*R_NET N107 8.356e-01
*DRIVER div_2/U56:X
*CELL SAEDRVT14_OAI21_0P5
*C2_R1_C1 4.178e-01 8.117e-02 4.178e-01 
*LOADS
*RC div_2/U57:A1 9.788e-03
*RC div_2/U59:A2 6.579e-03
*RC pack_soh_avg_reg_3_:D 6.311e-03
*END

*R_NET N108 8.356e-01
*DRIVER div_2/U51:X
*CELL SAEDRVT14_OAI21_0P5
*C2_R1_C1 4.178e-01 8.117e-02 4.178e-01 
*LOADS
*RC div_2/U52:A1 9.788e-03
*RC div_2/U54:A2 6.579e-03
*RC pack_soh_avg_reg_4_:D 6.311e-03
*END

*R_NET N109 9.142e-01
*DRIVER div_2/U46:X
*CELL SAEDRVT14_OAI21_0P5
*C2_R1_C1 4.571e-01 8.117e-02 4.571e-01 
*LOADS
*RC div_2/U47:A1 9.788e-03
*RC div_2/U49:A1 8.716e-03
*RC pack_soh_avg_reg_5_:D 6.311e-03
*END

*R_NET N110 9.142e-01
*DRIVER div_2/U41:X
*CELL SAEDRVT14_OAI21_0P5
*C2_R1_C1 4.571e-01 8.117e-02 4.571e-01 
*LOADS
*RC div_2/U42:A1 9.788e-03
*RC div_2/U44:A1 8.716e-03
*RC pack_soh_avg_reg_6_:D 6.311e-03
*END

*R_NET N111 9.142e-01
*DRIVER div_2/U36:X
*CELL SAEDRVT14_OAI21_0P5
*C2_R1_C1 4.571e-01 8.117e-02 4.571e-01 
*LOADS
*RC div_2/U37:A1 9.788e-03
*RC div_2/U39:A1 8.716e-03
*RC pack_soh_avg_reg_7_:D 6.311e-03
*END

*R_NET N112 9.142e-01
*DRIVER div_2/U31:X
*CELL SAEDRVT14_OAI21_0P5
*C2_R1_C1 4.571e-01 8.117e-02 4.571e-01 
*LOADS
*RC div_2/U32:A1 9.788e-03
*RC div_2/U34:A1 8.716e-03
*RC pack_soh_avg_reg_8_:D 6.311e-03
*END

*R_NET N113 9.142e-01
*DRIVER div_2/U26:X
*CELL SAEDRVT14_OAI21_0P5
*C2_R1_C1 4.571e-01 8.117e-02 4.571e-01 
*LOADS
*RC div_2/U27:A1 9.788e-03
*RC div_2/U29:A1 8.716e-03
*RC pack_soh_avg_reg_9_:D 6.311e-03
*END

*R_NET N114 9.142e-01
*DRIVER div_2/U21:X
*CELL SAEDRVT14_OAI21_0P5
*C2_R1_C1 4.571e-01 8.117e-02 4.571e-01 
*LOADS
*RC div_2/U22:A1 9.788e-03
*RC div_2/U24:A1 8.716e-03
*RC pack_soh_avg_reg_10_:D 6.311e-03
*END

*R_NET N115 9.142e-01
*DRIVER div_2/U16:X
*CELL SAEDRVT14_OAI21_0P5
*C2_R1_C1 4.571e-01 8.117e-02 4.571e-01 
*LOADS
*RC div_2/U17:A1 9.788e-03
*RC div_2/U19:A1 8.716e-03
*RC pack_soh_avg_reg_11_:D 6.311e-03
*END

*R_NET N116 9.142e-01
*DRIVER div_2/U11:X
*CELL SAEDRVT14_OAI21_0P5
*C2_R1_C1 4.571e-01 8.117e-02 4.571e-01 
*LOADS
*RC div_2/U12:A1 9.788e-03
*RC div_2/U14:A1 8.716e-03
*RC pack_soh_avg_reg_12_:D 6.311e-03
*END

*R_NET N117 9.142e-01
*DRIVER div_2/U1:X
*CELL SAEDRVT14_AO2BB2_V1_0P5
*C2_R1_C1 4.571e-01 8.117e-02 4.571e-01 
*LOADS
*RC div_2/U6:A1 9.788e-03
*RC div_2/U8:A1 8.716e-03
*RC pack_soh_avg_reg_13_:D 6.311e-03
*END

*R_NET N118 2.322e-01
*DRIVER div_2/U3:X
*CELL SAEDRVT14_AN2_0P5
*C2_R1_C1 1.161e-01 2.192e-02 1.161e-01 
*LOADS
*RC pack_soh_avg_reg_14_:D 5.091e-03
*END

*R_NET N120 2.736e-01
*DRIVER gte_x_3/U112:X
*CELL SAEDRVT14_AOI21_0P75
*C2_R1_C1 1.368e-01 2.192e-02 1.368e-01 
*LOADS
*RC U210:A1 5.999e-03
*END

*R_NET N121 2.699e-01
*DRIVER gte_x_4/U112:X
*CELL SAEDRVT14_AOI21_0P75
*C2_R1_C1 1.350e-01 2.192e-02 1.350e-01 
*LOADS
*RC U210:A2 5.918e-03
*END

*R_NET N123 4.268e-01
*DRIVER gte_x_5/U112:X
*CELL SAEDRVT14_AOI21_0P75
*C2_R1_C1 2.134e-01 5.002e-02 2.134e-01 
*LOADS
*RC U212:A1 4.381e-03
*RC U236:A2 6.294e-03
*END

*R_NET N126 2.322e-01
*DRIVER U237:X
*CELL SAEDRVT14_AO222_1
*C2_R1_C1 1.161e-01 2.192e-02 1.161e-01 
*LOADS
*RC max_temp_seen_reg_0_:D 5.091e-03
*END

*R_NET N127 2.322e-01
*DRIVER U240:X
*CELL SAEDRVT14_AO222_1
*C2_R1_C1 1.161e-01 2.192e-02 1.161e-01 
*LOADS
*RC max_temp_seen_reg_1_:D 5.091e-03
*END

*R_NET N128 2.322e-01
*DRIVER U241:X
*CELL SAEDRVT14_AO222_1
*C2_R1_C1 1.161e-01 2.192e-02 1.161e-01 
*LOADS
*RC max_temp_seen_reg_2_:D 5.091e-03
*END

*R_NET N129 2.322e-01
*DRIVER U242:X
*CELL SAEDRVT14_AO222_1
*C2_R1_C1 1.161e-01 2.192e-02 1.161e-01 
*LOADS
*RC max_temp_seen_reg_3_:D 5.091e-03
*END

*R_NET N130 2.322e-01
*DRIVER U243:X
*CELL SAEDRVT14_AO222_1
*C2_R1_C1 1.161e-01 2.192e-02 1.161e-01 
*LOADS
*RC max_temp_seen_reg_4_:D 5.091e-03
*END

*R_NET N131 2.322e-01
*DRIVER U244:X
*CELL SAEDRVT14_AO222_1
*C2_R1_C1 1.161e-01 2.192e-02 1.161e-01 
*LOADS
*RC max_temp_seen_reg_5_:D 5.091e-03
*END

*R_NET N132 2.322e-01
*DRIVER U245:X
*CELL SAEDRVT14_AO222_1
*C2_R1_C1 1.161e-01 2.192e-02 1.161e-01 
*LOADS
*RC max_temp_seen_reg_6_:D 5.091e-03
*END

*R_NET N133 2.322e-01
*DRIVER U246:X
*CELL SAEDRVT14_AO222_1
*C2_R1_C1 1.161e-01 2.192e-02 1.161e-01 
*LOADS
*RC max_temp_seen_reg_7_:D 5.091e-03
*END

*R_NET N134 2.322e-01
*DRIVER U247:X
*CELL SAEDRVT14_AO222_1
*C2_R1_C1 1.161e-01 2.192e-02 1.161e-01 
*LOADS
*RC max_temp_seen_reg_8_:D 5.091e-03
*END

*R_NET N135 2.322e-01
*DRIVER U248:X
*CELL SAEDRVT14_AO222_1
*C2_R1_C1 1.161e-01 2.192e-02 1.161e-01 
*LOADS
*RC max_temp_seen_reg_9_:D 5.091e-03
*END

*R_NET N136 2.322e-01
*DRIVER U249:X
*CELL SAEDRVT14_AO222_1
*C2_R1_C1 1.161e-01 2.192e-02 1.161e-01 
*LOADS
*RC max_temp_seen_reg_10_:D 5.091e-03
*END

*R_NET N137 2.322e-01
*DRIVER U250:X
*CELL SAEDRVT14_AO222_1
*C2_R1_C1 1.161e-01 2.192e-02 1.161e-01 
*LOADS
*RC max_temp_seen_reg_11_:D 5.091e-03
*END

*R_NET N138 2.322e-01
*DRIVER U239:X
*CELL SAEDRVT14_ND2B_U_0P5
*C2_R1_C1 1.161e-01 2.192e-02 1.161e-01 
*LOADS
*RC global_fault_reg:D 5.091e-03
*END

*R_NET N153 6.971e-01
*DRIVER U218:X
*CELL SAEDRVT14_NR2_1
*C2_R1_C1 3.486e-01 8.117e-02 3.486e-01 
*LOADS
*RC state_reg_0_:D 6.311e-03
*RC U215:A2 6.705e-03
*RC U222:A2 5.926e-03
*END

*R_NET N155 4.439e-01
*DRIVER U251:X
*CELL SAEDRVT14_OA21_1
*C2_R1_C1 2.219e-01 5.002e-02 2.219e-01 
*LOADS
*RC state_reg_1_:D 5.823e-03
*RC U252:A1 5.279e-03
*END

*R_NET N157 2.322e-01
*DRIVER U217:X
*CELL SAEDRVT14_NR2_1
*C2_R1_C1 1.161e-01 2.192e-02 1.161e-01 
*LOADS
*RC state_reg_2_:D 5.091e-03
*END

*R_NET N159 3.332e-01
*DRIVER U238:X
*CELL SAEDRVT14_NR3_0P5
*C2_R1_C1 1.666e-01 2.192e-02 1.666e-01 
*LOADS
*RC active_lmu_id_reg_0_:D 7.305e-03
*END

*R_NET N161 3.332e-01
*DRIVER U215:X
*CELL SAEDRVT14_AN2_0P5
*C2_R1_C1 1.666e-01 2.192e-02 1.666e-01 
*LOADS
*RC active_lmu_id_reg_1_:D 7.305e-03
*END

*R_NET net893 1.384e+01
*DRIVER clk_gate_max_temp_seen_reg/latch:Q
*CELL SAEDRVT14_CKGTPLT_V5_1
*C2_R1_C1 6.922e+00 5.874e+00 6.922e+00 
*LOADS
*RC global_fault_code_reg_0_:CK 3.126e-02
*RC global_fault_code_reg_6_:CK 3.126e-02
*RC global_fault_code_reg_2_:CK 3.126e-02
*RC max_temp_seen_reg_0_:CK 3.126e-02
*RC global_fault_code_reg_1_:CK 3.126e-02
*RC max_temp_seen_reg_6_:CK 3.126e-02
*RC max_temp_seen_reg_10_:CK 3.126e-02
*RC global_fault_code_reg_7_:CK 3.126e-02
*RC max_temp_seen_reg_1_:CK 3.126e-02
*RC max_temp_seen_reg_8_:CK 3.126e-02
*RC global_fault_code_reg_5_:CK 3.126e-02
*RC max_temp_seen_reg_2_:CK 3.126e-02
*RC max_temp_seen_reg_9_:CK 3.126e-02
*RC global_fault_code_reg_4_:CK 3.126e-02
*RC global_fault_code_reg_3_:CK 3.126e-02
*RC max_temp_seen_reg_4_:CK 3.126e-02
*RC pack_soc_avg_reg_14_:CK 3.126e-02
*RC pack_soc_avg_reg_13_:CK 3.126e-02
*RC pack_soc_avg_reg_12_:CK 3.126e-02
*RC pack_soc_avg_reg_11_:CK 3.126e-02
*RC pack_soc_avg_reg_10_:CK 3.126e-02
*RC pack_soc_avg_reg_9_:CK 3.126e-02
*RC pack_soc_avg_reg_8_:CK 3.126e-02
*RC pack_soc_avg_reg_7_:CK 3.126e-02
*RC pack_soc_avg_reg_6_:CK 3.126e-02
*RC pack_soc_avg_reg_5_:CK 3.126e-02
*RC pack_soc_avg_reg_4_:CK 3.126e-02
*RC pack_soc_avg_reg_3_:CK 3.126e-02
*RC pack_soc_avg_reg_2_:CK 3.126e-02
*RC pack_soc_avg_reg_1_:CK 3.126e-02
*RC pack_soc_avg_reg_0_:CK 3.126e-02
*RC pack_soh_avg_reg_14_:CK 3.126e-02
*RC pack_soh_avg_reg_13_:CK 3.126e-02
*RC pack_soh_avg_reg_12_:CK 3.126e-02
*RC pack_soh_avg_reg_11_:CK 3.126e-02
*RC pack_soh_avg_reg_10_:CK 3.126e-02
*RC pack_soh_avg_reg_9_:CK 3.126e-02
*RC pack_soh_avg_reg_8_:CK 3.126e-02
*RC pack_soh_avg_reg_7_:CK 3.126e-02
*RC pack_soh_avg_reg_6_:CK 3.126e-02
*RC pack_soh_avg_reg_5_:CK 3.126e-02
*RC pack_soh_avg_reg_4_:CK 3.126e-02
*RC pack_soh_avg_reg_3_:CK 3.126e-02
*RC pack_soh_avg_reg_2_:CK 3.126e-02
*RC pack_soh_avg_reg_1_:CK 3.126e-02
*RC pack_soh_avg_reg_0_:CK 3.126e-02
*RC max_temp_seen_reg_7_:CK 3.126e-02
*RC max_temp_seen_reg_5_:CK 3.126e-02
*RC max_temp_seen_reg_11_:CK 3.126e-02
*RC max_temp_seen_reg_3_:CK 3.126e-02
*RC global_fault_reg:CK 3.126e-02
*END

*R_NET net899 8.121e-01
*DRIVER clk_gate_spi_slave_sel_reg/latch:Q
*CELL SAEDRVT14_CKGTPLT_V5_1
*C2_R1_C1 4.060e-01 8.117e-02 4.060e-01 
*LOADS
*RC active_lmu_id_reg_1_:CK 7.559e-03
*RC active_lmu_id_reg_0_:CK 7.559e-03
*RC spi_tx_byte_reg_4_:CK 6.871e-03
*END

*R_NET net904 7.618e-01
*DRIVER clk_gate_state_reg/latch:Q
*CELL SAEDRVT14_CKGTPLT_V5_1
*C2_R1_C1 3.809e-01 8.117e-02 3.809e-01 
*LOADS
*RC state_reg_1_:CK 6.871e-03
*RC state_reg_0_:CK 6.871e-03
*RC state_reg_2_:CK 6.871e-03
*END

*R_NET n3 2.322e-01
*DRIVER U223:X
*CELL SAEDRVT14_AO21_U_0P5
*C2_R1_C1 1.161e-01 2.192e-02 1.161e-01 
*LOADS
*RC poll_busy_reg:D 5.091e-03
*END

*R_NET n82 4.298e-01
*DRIVER U252:X
*CELL SAEDRVT14_AO21_U_0P5
*C2_R1_C1 2.149e-01 5.002e-02 2.149e-01 
*LOADS
*RC spi_start_reg:D 5.823e-03
*RC clk_gate_spi_slave_sel_reg/latch:EN 4.927e-03
*END

*R_NET n83 1.964e-01
*DRIVER U235:X
*CELL SAEDRVT14_OAI21_0P5
*C2_R1_C1 9.820e-02 2.192e-02 9.820e-02 
*LOADS
*RC clk_gate_state_reg/latch:EN 4.306e-03
*END

*R_NET n85 2.322e-01
*DRIVER U228:X
*CELL SAEDRVT14_AO222_1
*C2_R1_C1 1.161e-01 2.192e-02 1.161e-01 
*LOADS
*RC global_fault_code_reg_0_:D 5.091e-03
*END

*R_NET n86 2.322e-01
*DRIVER U226:X
*CELL SAEDRVT14_AO222_1
*C2_R1_C1 1.161e-01 2.192e-02 1.161e-01 
*LOADS
*RC global_fault_code_reg_1_:D 5.091e-03
*END

*R_NET n87 2.322e-01
*DRIVER U232:X
*CELL SAEDRVT14_AO222_1
*C2_R1_C1 1.161e-01 2.192e-02 1.161e-01 
*LOADS
*RC global_fault_code_reg_2_:D 5.091e-03
*END

*R_NET n88 2.322e-01
*DRIVER U230:X
*CELL SAEDRVT14_AO222_1
*C2_R1_C1 1.161e-01 2.192e-02 1.161e-01 
*LOADS
*RC global_fault_code_reg_3_:D 5.091e-03
*END

*R_NET n89 2.322e-01
*DRIVER U231:X
*CELL SAEDRVT14_AO222_1
*C2_R1_C1 1.161e-01 2.192e-02 1.161e-01 
*LOADS
*RC global_fault_code_reg_4_:D 5.091e-03
*END

*R_NET n90 2.322e-01
*DRIVER U227:X
*CELL SAEDRVT14_AO222_1
*C2_R1_C1 1.161e-01 2.192e-02 1.161e-01 
*LOADS
*RC global_fault_code_reg_5_:D 5.091e-03
*END

*R_NET n91 2.322e-01
*DRIVER U229:X
*CELL SAEDRVT14_AO222_1
*C2_R1_C1 1.161e-01 2.192e-02 1.161e-01 
*LOADS
*RC global_fault_code_reg_6_:D 5.091e-03
*END

*R_NET n92 2.322e-01
*DRIVER U225:X
*CELL SAEDRVT14_AO222_1
*C2_R1_C1 1.161e-01 2.192e-02 1.161e-01 
*LOADS
*RC global_fault_code_reg_7_:D 5.091e-03
*END

*R_NET n93 3.183e-01
*DRIVER U119:X
*CELL SAEDRVT14_INV_0P5
*C2_R1_C1 1.592e-01 5.002e-02 1.592e-01 
*LOADS
*RC U121:A 3.981e-03
*RC U120:A 3.981e-03
*END

*R_NET max_temp_seen\[10\] 5.004e+00
*DRIVER U120:X
*CELL SAEDRVT14_INV_0P5
*C2_R1_C1 2.502e+00 2.192e-02 2.502e+00 
*LOADS
*RC max_temp_seen\[10\] 1.097e-01
*END

*R_NET n95 2.815e-01
*DRIVER U121:X
*CELL SAEDRVT14_INV_0P5
*C2_R1_C1 1.407e-01 2.192e-02 1.407e-01 
*LOADS
*RC u_curr_sup/U30:A3 6.171e-03
*END

*R_NET n96 3.183e-01
*DRIVER U122:X
*CELL SAEDRVT14_INV_0P5
*C2_R1_C1 1.592e-01 5.002e-02 1.592e-01 
*LOADS
*RC U124:A 3.981e-03
*RC U123:A 3.981e-03
*END

*R_NET max_temp_seen\[11\] 5.004e+00
*DRIVER U123:X
*CELL SAEDRVT14_INV_0P5
*C2_R1_C1 2.502e+00 2.192e-02 2.502e+00 
*LOADS
*RC max_temp_seen\[11\] 1.097e-01
*END

*R_NET n98 3.437e-01
*DRIVER U124:X
*CELL SAEDRVT14_INV_0P5
*C2_R1_C1 1.718e-01 2.192e-02 1.718e-01 
*LOADS
*RC u_curr_sup/U30:A2 7.535e-03
*END

*R_NET n99 3.183e-01
*DRIVER U125:X
*CELL SAEDRVT14_INV_0P5
*C2_R1_C1 1.592e-01 5.002e-02 1.592e-01 
*LOADS
*RC U127:A 3.981e-03
*RC U126:A 3.981e-03
*END

*R_NET max_temp_seen\[3\] 5.004e+00
*DRIVER U126:X
*CELL SAEDRVT14_INV_0P5
*C2_R1_C1 2.502e+00 2.192e-02 2.502e+00 
*LOADS
*RC max_temp_seen\[3\] 1.097e-01
*END

*R_NET n101 3.437e-01
*DRIVER U127:X
*CELL SAEDRVT14_INV_0P5
*C2_R1_C1 1.718e-01 2.192e-02 1.718e-01 
*LOADS
*RC u_curr_sup/U32:A2 7.535e-03
*END

*R_NET n102 6.398e-01
*DRIVER U128:X
*CELL SAEDRVT14_INV_0P5
*C2_R1_C1 3.199e-01 1.158e-01 3.199e-01 
*LOADS
*RC U132:A 4.629e-03
*RC U131:A 4.629e-03
*RC U130:A 4.629e-03
*RC U129:A 4.629e-03
*END

*R_NET n103 5.512e-01
*DRIVER U129:X
*CELL SAEDRVT14_INV_0P5
*C2_R1_C1 2.756e-01 5.002e-02 2.756e-01 
*LOADS
*RC U225:C1 7.419e-03
*RC U231:B1 6.367e-03
*END

*R_NET n104 5.091e-01
*DRIVER U130:X
*CELL SAEDRVT14_INV_0P5
*C2_R1_C1 2.546e-01 5.002e-02 2.546e-01 
*LOADS
*RC U230:B1 6.367e-03
*RC U228:B1 6.367e-03
*END

*R_NET n105 5.091e-01
*DRIVER U131:X
*CELL SAEDRVT14_INV_0P5
*C2_R1_C1 2.546e-01 5.002e-02 2.546e-01 
*LOADS
*RC U227:B1 6.367e-03
*RC U232:B1 6.367e-03
*END

*R_NET n106 5.091e-01
*DRIVER U132:X
*CELL SAEDRVT14_INV_0P5
*C2_R1_C1 2.546e-01 5.002e-02 2.546e-01 
*LOADS
*RC U229:B1 6.367e-03
*RC U226:B1 6.367e-03
*END

*R_NET n107 3.183e-01
*DRIVER U133:X
*CELL SAEDRVT14_INV_0P5
*C2_R1_C1 1.592e-01 5.002e-02 1.592e-01 
*LOADS
*RC U135:A 3.981e-03
*RC U134:A 3.981e-03
*END

*R_NET global_fault 5.004e+00
*DRIVER U134:X
*CELL SAEDRVT14_INV_0P5
*C2_R1_C1 2.502e+00 2.192e-02 2.502e+00 
*LOADS
*RC global_fault 1.097e-01
*END

*R_NET n109 4.508e-01
*DRIVER U135:X
*CELL SAEDRVT14_INV_0P5
*C2_R1_C1 2.254e-01 5.002e-02 2.254e-01 
*LOADS
*RC u_curr_sup/U3:B 5.841e-03
*RC u_curr_sup/U29:A1 5.433e-03
*END

*R_NET n110 6.398e-01
*DRIVER U136:X
*CELL SAEDRVT14_INV_0P5
*C2_R1_C1 3.199e-01 1.158e-01 3.199e-01 
*LOADS
*RC U140:A 4.629e-03
*RC U139:A 4.629e-03
*RC U138:A 4.629e-03
*RC U137:A 4.629e-03
*END

*R_NET n111 5.667e-01
*DRIVER U137:X
*CELL SAEDRVT14_INV_0P5
*C2_R1_C1 2.834e-01 5.002e-02 2.834e-01 
*LOADS
*RC U225:B2 7.131e-03
*RC U231:C1 7.419e-03
*END

*R_NET n112 5.933e-01
*DRIVER U138:X
*CELL SAEDRVT14_INV_0P5
*C2_R1_C1 2.967e-01 5.002e-02 2.967e-01 
*LOADS
*RC U228:C1 7.419e-03
*RC U227:C1 7.419e-03
*END

*R_NET n113 5.933e-01
*DRIVER U139:X
*CELL SAEDRVT14_INV_0P5
*C2_R1_C1 2.967e-01 5.002e-02 2.967e-01 
*LOADS
*RC U230:C1 7.419e-03
*RC U229:C1 7.419e-03
*END

*R_NET n114 5.933e-01
*DRIVER U140:X
*CELL SAEDRVT14_INV_0P5
*C2_R1_C1 2.967e-01 5.002e-02 2.967e-01 
*LOADS
*RC U232:C1 7.419e-03
*RC U226:C1 7.419e-03
*END

*R_NET n115 4.787e-01
*DRIVER U141:X
*CELL SAEDRVT14_INV_0P5
*C2_R1_C1 2.394e-01 8.117e-02 2.394e-01 
*LOADS
*RC U144:A 4.318e-03
*RC U143:A 4.318e-03
*RC U142:A 4.318e-03
*END

*R_NET n116 1.059e+00
*DRIVER U142:X
*CELL SAEDRVT14_INV_0P5
*C2_R1_C1 5.294e-01 5.002e-02 5.294e-01 
*LOADS
*RC max_temp_seen_reg_4_:RD 1.314e-02
*RC state_reg_1_:RD 1.334e-02
*END

*R_NET n117 1.051e+00
*DRIVER U143:X
*CELL SAEDRVT14_INV_0P5
*C2_R1_C1 5.255e-01 5.002e-02 5.255e-01 
*LOADS
*RC max_temp_seen_reg_2_:RD 1.314e-02
*RC global_fault_code_reg_6_:RD 1.314e-02
*END

*R_NET n118 1.051e+00
*DRIVER U144:X
*CELL SAEDRVT14_INV_0P5
*C2_R1_C1 5.255e-01 5.002e-02 5.255e-01 
*LOADS
*RC pack_soh_avg_reg_2_:RD 1.314e-02
*RC pack_soh_avg_reg_8_:RD 1.314e-02
*END

*R_NET n119 4.787e-01
*DRIVER U145:X
*CELL SAEDRVT14_INV_0P5
*C2_R1_C1 2.394e-01 8.117e-02 2.394e-01 
*LOADS
*RC U148:A 4.318e-03
*RC U147:A 4.318e-03
*RC U146:A 4.318e-03
*END

*R_NET n120 1.122e+00
*DRIVER U146:X
*CELL SAEDRVT14_INV_0P5
*C2_R1_C1 5.609e-01 5.002e-02 5.609e-01 
*LOADS
*RC active_lmu_id_reg_1_:RD 1.491e-02
*RC max_temp_seen_reg_7_:RD 1.314e-02
*END

*R_NET n121 1.051e+00
*DRIVER U147:X
*CELL SAEDRVT14_INV_0P5
*C2_R1_C1 5.255e-01 5.002e-02 5.255e-01 
*LOADS
*RC state_reg_2_:RD 1.314e-02
*RC pack_soh_avg_reg_13_:RD 1.314e-02
*END

*R_NET n122 1.051e+00
*DRIVER U148:X
*CELL SAEDRVT14_INV_0P5
*C2_R1_C1 5.255e-01 5.002e-02 5.255e-01 
*LOADS
*RC max_temp_seen_reg_8_:RD 1.314e-02
*RC pack_soc_avg_reg_3_:RD 1.314e-02
*END

*R_NET n123 6.398e-01
*DRIVER U149:X
*CELL SAEDRVT14_INV_0P5
*C2_R1_C1 3.199e-01 1.158e-01 3.199e-01 
*LOADS
*RC U153:A 4.629e-03
*RC U152:A 4.629e-03
*RC U151:A 4.629e-03
*RC U150:A 4.629e-03
*END

*R_NET n124 6.829e-01
*DRIVER U150:X
*CELL SAEDRVT14_INV_0P5
*C2_R1_C1 3.414e-01 8.117e-02 3.414e-01 
*LOADS
*RC U214:A2 6.820e-03
*RC U228:A1 5.828e-03
*RC U225:A1 5.828e-03
*END

*R_NET n125 6.574e-01
*DRIVER U151:X
*CELL SAEDRVT14_INV_0P5
*C2_R1_C1 3.287e-01 8.117e-02 3.287e-01 
*LOADS
*RC U229:A1 5.828e-03
*RC U232:A1 5.828e-03
*RC U224:A 6.163e-03
*END

*R_NET n126 4.300e-01
*DRIVER U152:X
*CELL SAEDRVT14_INV_0P5
*C2_R1_C1 2.150e-01 5.002e-02 2.150e-01 
*LOADS
*RC U227:A1 5.377e-03
*RC U230:A1 5.377e-03
*END

*R_NET n127 4.300e-01
*DRIVER U153:X
*CELL SAEDRVT14_INV_0P5
*C2_R1_C1 2.150e-01 5.002e-02 2.150e-01 
*LOADS
*RC U231:A1 5.377e-03
*RC U226:A1 5.377e-03
*END

*R_NET n128 3.183e-01
*DRIVER U154:X
*CELL SAEDRVT14_INV_0P5
*C2_R1_C1 1.592e-01 5.002e-02 1.592e-01 
*LOADS
*RC U156:A 3.981e-03
*RC U155:A 3.981e-03
*END

*R_NET active_lmu_id\[0\] 5.004e+00
*DRIVER U155:X
*CELL SAEDRVT14_INV_0P5
*C2_R1_C1 2.502e+00 2.192e-02 2.502e+00 
*LOADS
*RC active_lmu_id\[0\] 1.097e-01
*END

*R_NET n130 6.350e-01
*DRIVER U156:X
*CELL SAEDRVT14_INV_0P5
*C2_R1_C1 3.175e-01 8.117e-02 3.175e-01 
*LOADS
*RC u_spi_master/U13:A1 5.889e-03
*RC u_spi_master/U80:A 4.318e-03
*RC u_spi_master/U96:A1 6.985e-03
*END

*R_NET n131 3.183e-01
*DRIVER U157:X
*CELL SAEDRVT14_INV_0P5
*C2_R1_C1 1.592e-01 5.002e-02 1.592e-01 
*LOADS
*RC U159:A 3.981e-03
*RC U158:A 3.981e-03
*END

*R_NET max_temp_seen\[6\] 5.004e+00
*DRIVER U158:X
*CELL SAEDRVT14_INV_0P5
*C2_R1_C1 2.502e+00 2.192e-02 2.502e+00 
*LOADS
*RC max_temp_seen\[6\] 1.097e-01
*END

*R_NET n133 7.243e-01
*DRIVER U159:X
*CELL SAEDRVT14_INV_0P5
*C2_R1_C1 3.622e-01 8.117e-02 3.622e-01 
*LOADS
*RC u_curr_sup/U31:B1 6.819e-03
*RC u_curr_sup/U31:A1 6.108e-03
*RC u_curr_sup/U33:A1 6.672e-03
*END

*R_NET n134 4.787e-01
*DRIVER U160:X
*CELL SAEDRVT14_INV_0P5
*C2_R1_C1 2.394e-01 8.117e-02 2.394e-01 
*LOADS
*RC U163:A 4.318e-03
*RC U162:A 4.318e-03
*RC U161:A 4.318e-03
*END

*R_NET n135 1.178e+00
*DRIVER U161:X
*CELL SAEDRVT14_INV_0P5
*C2_R1_C1 5.891e-01 2.192e-02 5.891e-01 
*LOADS
*RC U189:CK 2.583e-02
*END

*R_NET n136 1.178e+00
*DRIVER U162:X
*CELL SAEDRVT14_INV_0P5
*C2_R1_C1 5.891e-01 2.192e-02 5.891e-01 
*LOADS
*RC U194:CK 2.583e-02
*END

*R_NET n137 1.178e+00
*DRIVER U163:X
*CELL SAEDRVT14_INV_0P5
*C2_R1_C1 5.891e-01 2.192e-02 5.891e-01 
*LOADS
*RC U197:CK 2.583e-02
*END

*R_NET n138 3.183e-01
*DRIVER U164:X
*CELL SAEDRVT14_INV_0P5
*C2_R1_C1 1.592e-01 5.002e-02 1.592e-01 
*LOADS
*RC U193:A 3.981e-03
*RC U160:A 3.981e-03
*END

*R_NET n139 3.183e-01
*DRIVER U165:X
*CELL SAEDRVT14_INV_0P5
*C2_R1_C1 1.592e-01 5.002e-02 1.592e-01 
*LOADS
*RC U167:A 3.981e-03
*RC U166:A 3.981e-03
*END

*R_NET active_lmu_id\[1\] 5.004e+00
*DRIVER U166:X
*CELL SAEDRVT14_INV_0P5
*C2_R1_C1 2.502e+00 2.192e-02 2.502e+00 
*LOADS
*RC active_lmu_id\[1\] 1.097e-01
*END

*R_NET n141 9.690e-01
*DRIVER U167:X
*CELL SAEDRVT14_INV_0P5
*C2_R1_C1 4.845e-01 1.158e-01 4.845e-01 
*LOADS
*RC u_spi_master/U92:D0 6.277e-03
*RC u_spi_master/U96:A2 7.848e-03
*RC u_spi_master/U97:A1 7.482e-03
*RC u_spi_master/U98:A2 7.048e-03
*END

*R_NET n142 6.398e-01
*DRIVER U168:X
*CELL SAEDRVT14_INV_0P5
*C2_R1_C1 3.199e-01 1.158e-01 3.199e-01 
*LOADS
*RC U172:A 4.629e-03
*RC U171:A 4.629e-03
*RC U170:A 4.629e-03
*RC U169:A 4.629e-03
*END

*R_NET n143 8.070e-01
*DRIVER U169:X
*CELL SAEDRVT14_INV_0P5
*C2_R1_C1 4.035e-01 8.117e-02 4.035e-01 
*LOADS
*RC U237:C1 8.038e-03
*RC U248:B1 6.899e-03
*RC U240:B1 6.899e-03
*END

*R_NET n144 7.649e-01
*DRIVER U170:X
*CELL SAEDRVT14_INV_0P5
*C2_R1_C1 3.825e-01 8.117e-02 3.825e-01 
*LOADS
*RC U247:B1 6.899e-03
*RC U245:B1 6.899e-03
*RC U244:B1 6.899e-03
*END

*R_NET n145 7.649e-01
*DRIVER U171:X
*CELL SAEDRVT14_INV_0P5
*C2_R1_C1 3.825e-01 8.117e-02 3.825e-01 
*LOADS
*RC U241:B1 6.899e-03
*RC U249:B1 6.899e-03
*RC U250:B1 6.899e-03
*END

*R_NET n146 7.649e-01
*DRIVER U172:X
*CELL SAEDRVT14_INV_0P5
*C2_R1_C1 3.825e-01 8.117e-02 3.825e-01 
*LOADS
*RC U246:B1 6.899e-03
*RC U243:B1 6.899e-03
*RC U242:B1 6.899e-03
*END

*R_NET n147 6.398e-01
*DRIVER U173:X
*CELL SAEDRVT14_INV_0P5
*C2_R1_C1 3.199e-01 1.158e-01 3.199e-01 
*LOADS
*RC U177:A 4.629e-03
*RC U176:A 4.629e-03
*RC U175:A 4.629e-03
*RC U174:A 4.629e-03
*END

*R_NET n148 8.230e-01
*DRIVER U174:X
*CELL SAEDRVT14_INV_0P5
*C2_R1_C1 4.115e-01 1.158e-01 4.115e-01 
*LOADS
*RC U236:A1 5.594e-03
*RC U244:A1 6.245e-03
*RC U243:A1 6.245e-03
*RC U250:A1 6.245e-03
*END

*R_NET n149 6.462e-01
*DRIVER U175:X
*CELL SAEDRVT14_INV_0P5
*C2_R1_C1 3.231e-01 8.117e-02 3.231e-01 
*LOADS
*RC U240:A1 5.828e-03
*RC U249:A1 5.828e-03
*RC U237:A1 5.828e-03
*END

*R_NET n150 6.462e-01
*DRIVER U176:X
*CELL SAEDRVT14_INV_0P5
*C2_R1_C1 3.231e-01 8.117e-02 3.231e-01 
*LOADS
*RC U246:A1 5.828e-03
*RC U247:A1 5.828e-03
*RC U245:A1 5.828e-03
*END

*R_NET n151 6.462e-01
*DRIVER U177:X
*CELL SAEDRVT14_INV_0P5
*C2_R1_C1 3.231e-01 8.117e-02 3.231e-01 
*LOADS
*RC U242:A1 5.828e-03
*RC U248:A1 5.828e-03
*RC U241:A1 5.828e-03
*END

*R_NET n152 6.398e-01
*DRIVER U178:X
*CELL SAEDRVT14_INV_0P5
*C2_R1_C1 3.199e-01 1.158e-01 3.199e-01 
*LOADS
*RC U182:A 4.629e-03
*RC U181:A 4.629e-03
*RC U180:A 4.629e-03
*RC U179:A 4.629e-03
*END

*R_NET n153 1.278e+00
*DRIVER U179:X
*CELL SAEDRVT14_INV_0P5
*C2_R1_C1 6.389e-01 8.117e-02 6.389e-01 
*LOADS
*RC U241:C2 1.152e-02
*RC U250:C2 1.152e-02
*RC U248:C2 1.152e-02
*END

*R_NET n154 1.278e+00
*DRIVER U180:X
*CELL SAEDRVT14_INV_0P5
*C2_R1_C1 6.389e-01 8.117e-02 6.389e-01 
*LOADS
*RC U249:C2 1.152e-02
*RC U242:C2 1.152e-02
*RC U243:C2 1.152e-02
*END

*R_NET n155 1.278e+00
*DRIVER U181:X
*CELL SAEDRVT14_INV_0P5
*C2_R1_C1 6.389e-01 8.117e-02 6.389e-01 
*LOADS
*RC U247:C2 1.152e-02
*RC U246:C2 1.152e-02
*RC U244:C2 1.152e-02
*END

*R_NET n156 1.083e+00
*DRIVER U182:X
*CELL SAEDRVT14_INV_0P5
*C2_R1_C1 5.413e-01 8.117e-02 5.413e-01 
*LOADS
*RC U245:C2 1.152e-02
*RC U240:C2 1.152e-02
*RC U237:B1 6.899e-03
*END

*R_NET n157 1.051e+00
*DRIVER U183:X
*CELL SAEDRVT14_INV_0P5
*C2_R1_C1 5.255e-01 5.002e-02 5.255e-01 
*LOADS
*RC max_temp_seen_reg_3_:RD 1.314e-02
*RC pack_soh_avg_reg_12_:RD 1.314e-02
*END

*R_NET n158 6.847e-01
*DRIVER U184:X
*CELL SAEDRVT14_INV_0P5
*C2_R1_C1 3.423e-01 5.002e-02 3.423e-01 
*LOADS
*RC U141:A 3.981e-03
*RC pack_soc_avg_reg_1_:RD 1.314e-02
*END

*R_NET n159 1.704e+00
*DRIVER U185:X
*CELL SAEDRVT14_INV_0P5
*C2_R1_C1 8.521e-01 5.002e-02 8.521e-01 
*LOADS
*RC u_curr_sup/allowed_current_reg_1_:RD 1.314e-02
*RC u_curr_sup/U17:CK 2.948e-02
*END

*R_NET n160 4.787e-01
*DRIVER U186:CKOUT
*CELL SAEDRVT14_CLKSPLT_1
*C2_R1_C1 2.394e-01 8.117e-02 2.394e-01 
*LOADS
*RC U184:A 4.318e-03
*RC U185:A 4.318e-03
*RC U187:A 4.318e-03
*END

*R_NET n161 1.578e+00
*DRIVER U186:CKOUTB
*CELL SAEDRVT14_CLKSPLT_1
*C2_R1_C1 7.889e-01 8.117e-02 7.889e-01 
*LOADS
*RC global_fault_code_reg_2_:RD 1.423e-02
*RC max_temp_seen_reg_9_:RD 1.423e-02
*RC pack_soh_avg_reg_11_:RD 1.423e-02
*END

*R_NET n162 5.249e-01
*DRIVER U187:X
*CELL SAEDRVT14_INV_0P5
*C2_R1_C1 2.624e-01 2.192e-02 2.624e-01 
*LOADS
*RC max_temp_seen_reg_6_:RD 1.151e-02
*END

*R_NET n163 1.578e+00
*DRIVER U188:X
*CELL SAEDRVT14_INV_0P5
*C2_R1_C1 7.889e-01 8.117e-02 7.889e-01 
*LOADS
*RC pack_soc_avg_reg_10_:RD 1.423e-02
*RC global_fault_code_reg_4_:RD 1.423e-02
*RC global_fault_code_reg_7_:RD 1.423e-02
*END

*R_NET n164 4.787e-01
*DRIVER U189:CKOUT
*CELL SAEDRVT14_CLKSPLT_1
*C2_R1_C1 2.394e-01 8.117e-02 2.394e-01 
*LOADS
*RC U183:A 4.318e-03
*RC U191:A 4.318e-03
*RC U190:A 4.318e-03
*END

*R_NET n165 1.578e+00
*DRIVER U189:CKOUTB
*CELL SAEDRVT14_CLKSPLT_1
*C2_R1_C1 7.889e-01 8.117e-02 7.889e-01 
*LOADS
*RC global_fault_code_reg_0_:RD 1.423e-02
*RC pack_soc_avg_reg_14_:RD 1.423e-02
*RC pack_soc_avg_reg_5_:RD 1.423e-02
*END

*R_NET n166 1.178e+00
*DRIVER U190:X
*CELL SAEDRVT14_INV_0P5
*C2_R1_C1 5.891e-01 2.192e-02 5.891e-01 
*LOADS
*RC u_spi_master/U22:CK 2.583e-02
*END

*R_NET n167 5.249e-01
*DRIVER U191:X
*CELL SAEDRVT14_INV_0P5
*C2_R1_C1 2.624e-01 2.192e-02 2.624e-01 
*LOADS
*RC pack_soc_avg_reg_7_:RD 1.151e-02
*END

*R_NET n168 1.051e+00
*DRIVER U192:X
*CELL SAEDRVT14_INV_0P5
*C2_R1_C1 5.255e-01 5.002e-02 5.255e-01 
*LOADS
*RC max_temp_seen_reg_1_:RD 1.314e-02
*RC spi_tx_byte_reg_4_:RD 1.314e-02
*END

*R_NET n169 1.051e+00
*DRIVER U193:X
*CELL SAEDRVT14_INV_0P5
*C2_R1_C1 5.255e-01 5.002e-02 5.255e-01 
*LOADS
*RC state_reg_0_:RD 1.314e-02
*RC max_temp_seen_reg_11_:RD 1.314e-02
*END

*R_NET n170 3.183e-01
*DRIVER U194:CKOUT
*CELL SAEDRVT14_CLKSPLT_1
*C2_R1_C1 1.592e-01 5.002e-02 1.592e-01 
*LOADS
*RC U192:A 3.981e-03
*RC U195:A 3.981e-03
*END

*R_NET n171 1.578e+00
*DRIVER U194:CKOUTB
*CELL SAEDRVT14_CLKSPLT_1
*C2_R1_C1 7.889e-01 8.117e-02 7.889e-01 
*LOADS
*RC spi_start_reg:RD 1.423e-02
*RC pack_soc_avg_reg_13_:RD 1.423e-02
*RC pack_soh_avg_reg_7_:RD 1.423e-02
*END

*R_NET n172 6.847e-01
*DRIVER U195:X
*CELL SAEDRVT14_INV_0P5
*C2_R1_C1 3.423e-01 5.002e-02 3.423e-01 
*LOADS
*RC U145:A 3.981e-03
*RC pack_soh_avg_reg_1_:RD 1.314e-02
*END

*R_NET n173 1.051e+00
*DRIVER U196:X
*CELL SAEDRVT14_INV_0P5
*C2_R1_C1 5.255e-01 5.002e-02 5.255e-01 
*LOADS
*RC poll_busy_reg:RD 1.314e-02
*RC max_temp_seen_reg_0_:RD 1.314e-02
*END

*R_NET n174 1.338e+00
*DRIVER U197:CKOUT
*CELL SAEDRVT14_CLKSPLT_1
*C2_R1_C1 6.690e-01 5.002e-02 6.690e-01 
*LOADS
*RC U186:CK 2.948e-02
*RC U198:A 3.981e-03
*END

*R_NET n175 1.739e+00
*DRIVER U197:CKOUTB
*CELL SAEDRVT14_CLKSPLT_1
*C2_R1_C1 8.694e-01 1.158e-01 8.694e-01 
*LOADS
*RC pack_soh_avg_reg_9_:RD 1.523e-02
*RC pack_soh_avg_reg_5_:RD 1.523e-02
*RC U200:A 4.629e-03
*RC pack_soc_avg_reg_6_:RD 1.523e-02
*END

*R_NET n176 1.578e+00
*DRIVER U198:X
*CELL SAEDRVT14_INV_0P5
*C2_R1_C1 7.889e-01 8.117e-02 7.889e-01 
*LOADS
*RC global_fault_code_reg_3_:RD 1.423e-02
*RC pack_soh_avg_reg_10_:RD 1.423e-02
*RC pack_soc_avg_reg_9_:RD 1.423e-02
*END

*R_NET n177 1.051e+00
*DRIVER U199:X
*CELL SAEDRVT14_INV_0P5
*C2_R1_C1 5.255e-01 5.002e-02 5.255e-01 
*LOADS
*RC max_temp_seen_reg_10_:RD 1.314e-02
*RC pack_soc_avg_reg_8_:RD 1.314e-02
*END

*R_NET n178 8.016e-01
*DRIVER U200:X
*CELL SAEDRVT14_INV_0P5
*C2_R1_C1 4.008e-01 1.542e-01 4.008e-01 
*LOADS
*RC U199:A 4.945e-03
*RC U204:A 4.945e-03
*RC U203:A 4.945e-03
*RC U202:A 4.945e-03
*RC U201:A 4.945e-03
*END

*R_NET n179 1.051e+00
*DRIVER U201:X
*CELL SAEDRVT14_INV_0P5
*C2_R1_C1 5.255e-01 5.002e-02 5.255e-01 
*LOADS
*RC global_fault_reg:RD 1.314e-02
*RC pack_soc_avg_reg_4_:RD 1.314e-02
*END

*R_NET n180 1.122e+00
*DRIVER U202:X
*CELL SAEDRVT14_INV_0P5
*C2_R1_C1 5.609e-01 5.002e-02 5.609e-01 
*LOADS
*RC active_lmu_id_reg_0_:RD 1.491e-02
*RC pack_soc_avg_reg_0_:RD 1.314e-02
*END

*R_NET n181 1.051e+00
*DRIVER U203:X
*CELL SAEDRVT14_INV_0P5
*C2_R1_C1 5.255e-01 5.002e-02 5.255e-01 
*LOADS
*RC pack_soc_avg_reg_12_:RD 1.314e-02
*RC pack_soc_avg_reg_11_:RD 1.314e-02
*END

*R_NET n182 1.051e+00
*DRIVER U204:X
*CELL SAEDRVT14_INV_0P5
*C2_R1_C1 5.255e-01 5.002e-02 5.255e-01 
*LOADS
*RC pack_soh_avg_reg_0_:RD 1.314e-02
*RC global_fault_code_reg_1_:RD 1.314e-02
*END

*R_NET n183 8.016e-01
*DRIVER U205:X
*CELL SAEDRVT14_INV_0P5
*C2_R1_C1 4.008e-01 1.542e-01 4.008e-01 
*LOADS
*RC U188:A 4.945e-03
*RC U196:A 4.945e-03
*RC U208:A 4.945e-03
*RC U207:A 4.945e-03
*RC U206:A 4.945e-03
*END

*R_NET n184 1.051e+00
*DRIVER U206:X
*CELL SAEDRVT14_INV_0P5
*C2_R1_C1 5.255e-01 5.002e-02 5.255e-01 
*LOADS
*RC global_fault_code_reg_5_:RD 1.314e-02
*RC pack_soh_avg_reg_3_:RD 1.314e-02
*END

*R_NET n185 1.051e+00
*DRIVER U207:X
*CELL SAEDRVT14_INV_0P5
*C2_R1_C1 5.255e-01 5.002e-02 5.255e-01 
*LOADS
*RC pack_soc_avg_reg_2_:RD 1.314e-02
*RC max_temp_seen_reg_5_:RD 1.314e-02
*END

*R_NET n186 1.051e+00
*DRIVER U208:X
*CELL SAEDRVT14_INV_0P5
*C2_R1_C1 5.255e-01 5.002e-02 5.255e-01 
*LOADS
*RC pack_soh_avg_reg_14_:RD 1.314e-02
*RC pack_soh_avg_reg_6_:RD 1.314e-02
*END

*R_NET spi_cs_n\[2\] 5.004e+00
*DRIVER u_spi_master/U10:X
*CELL SAEDRVT14_INV_0P5
*C2_R1_C1 2.502e+00 2.192e-02 2.502e+00 
*LOADS
*RC spi_cs_n\[2\] 1.097e-01
*END

*R_NET spi_cs_n\[1\] 5.004e+00
*DRIVER u_spi_master/U6:X
*CELL SAEDRVT14_INV_0P5
*C2_R1_C1 2.502e+00 2.192e-02 2.502e+00 
*LOADS
*RC spi_cs_n\[1\] 1.097e-01
*END

*R_NET spi_cs_n\[0\] 5.004e+00
*DRIVER u_spi_master/U8:X
*CELL SAEDRVT14_INV_0P5
*C2_R1_C1 2.502e+00 2.192e-02 2.502e+00 
*LOADS
*RC spi_cs_n\[0\] 1.097e-01
*END

*R_NET allowed_current\[8\] 1.001e+01
*DRIVER u_curr_sup/U8:X
*CELL SAEDRVT14_INV_0P5
*C2_R1_C1 5.005e+00 5.002e-02 5.005e+00 
*LOADS
*RC allowed_current\[5\] 1.252e-01
*RC allowed_current\[8\] 1.252e-01
*END

*R_NET allowed_current\[3\] 5.004e+00
*DRIVER u_curr_sup/U10:X
*CELL SAEDRVT14_INV_0P5
*C2_R1_C1 2.502e+00 2.192e-02 2.502e+00 
*LOADS
*RC allowed_current\[3\] 1.097e-01
*END

*R_NET allowed_current\[2\] 5.004e+00
*DRIVER u_curr_sup/U12:X
*CELL SAEDRVT14_INV_0P5
*C2_R1_C1 2.502e+00 2.192e-02 2.502e+00 
*LOADS
*RC allowed_current\[2\] 1.097e-01
*END

*R_NET lmu_count_fault 1.022e+02
*DRIVER U118:X
*CELL SAEDLVT14_TIE0_V1_2
*C2_R1_C1 5.111e+01 1.756e+01 5.111e+01 
*LOADS
*RC clk_gate_state_reg/latch:SE 2.928e-02
*RC clk_gate_spi_slave_sel_reg/latch:SE 2.928e-02
*RC active_lmu_id_reg_1_:SE 6.578e-02
*RC active_lmu_id_reg_1_:SI 4.262e-02
*RC active_lmu_id_reg_0_:SE 6.578e-02
*RC active_lmu_id_reg_0_:SI 4.262e-02
*RC state_reg_1_:SE 6.185e-02
*RC state_reg_1_:SI 2.989e-02
*RC pack_soc_avg\[15\] 6.638e-01
*RC pack_soh_avg\[15\] 6.638e-01
*RC supervisor_code\[3\] 6.638e-01
*RC supervisor_code\[4\] 6.638e-01
*RC allowed_current\[9\] 6.638e-01
*RC allowed_current\[10\] 6.638e-01
*RC allowed_current\[11\] 6.638e-01
*RC allowed_current\[12\] 6.638e-01
*RC allowed_current\[13\] 6.638e-01
*RC allowed_current\[14\] 6.638e-01
*RC allowed_current\[15\] 6.638e-01
*RC lmu_count_fault 6.638e-01
*RC global_fault_reg:SI 2.990e-02
*RC global_fault_reg:SE 6.186e-02
*RC max_temp_seen_reg_3_:SI 2.990e-02
*RC max_temp_seen_reg_3_:SE 6.186e-02
*RC max_temp_seen_reg_11_:SI 2.990e-02
*RC max_temp_seen_reg_11_:SE 6.186e-02
*RC max_temp_seen_reg_5_:SI 2.990e-02
*RC max_temp_seen_reg_5_:SE 6.186e-02
*RC max_temp_seen_reg_7_:SI 2.990e-02
*RC max_temp_seen_reg_7_:SE 6.186e-02
*RC state_reg_2_:SI 2.990e-02
*RC state_reg_2_:SE 6.186e-02
*RC pack_soh_avg_reg_0_:SI 2.990e-02
*RC pack_soh_avg_reg_0_:SE 6.186e-02
*RC pack_soh_avg_reg_1_:SI 2.990e-02
*RC pack_soh_avg_reg_1_:SE 6.186e-02
*RC pack_soh_avg_reg_2_:SI 2.990e-02
*RC pack_soh_avg_reg_2_:SE 6.186e-02
*RC pack_soh_avg_reg_3_:SI 2.990e-02
*RC pack_soh_avg_reg_3_:SE 6.186e-02
*RC pack_soh_avg_reg_4_:SI 2.990e-02
*RC pack_soh_avg_reg_4_:SE 6.186e-02
*RC pack_soh_avg_reg_5_:SI 2.990e-02
*RC pack_soh_avg_reg_5_:SE 6.186e-02
*RC pack_soh_avg_reg_6_:SI 2.990e-02
*RC pack_soh_avg_reg_6_:SE 6.186e-02
*RC pack_soh_avg_reg_7_:SI 2.990e-02
*RC pack_soh_avg_reg_7_:SE 6.186e-02
*RC pack_soh_avg_reg_8_:SI 2.990e-02
*RC pack_soh_avg_reg_8_:SE 6.186e-02
*RC pack_soh_avg_reg_9_:SI 2.990e-02
*RC pack_soh_avg_reg_9_:SE 6.186e-02
*RC pack_soh_avg_reg_10_:SI 2.990e-02
*RC pack_soh_avg_reg_10_:SE 6.186e-02
*RC pack_soh_avg_reg_11_:SI 2.990e-02
*RC pack_soh_avg_reg_11_:SE 6.186e-02
*RC pack_soh_avg_reg_12_:SI 2.990e-02
*RC pack_soh_avg_reg_12_:SE 6.186e-02
*RC pack_soh_avg_reg_13_:SI 2.990e-02
*RC pack_soh_avg_reg_13_:SE 6.186e-02
*RC pack_soh_avg_reg_14_:SI 2.990e-02
*RC pack_soh_avg_reg_14_:SE 6.186e-02
*RC pack_soc_avg_reg_0_:SI 2.990e-02
*RC pack_soc_avg_reg_0_:SE 6.186e-02
*RC pack_soc_avg_reg_1_:SI 2.990e-02
*RC pack_soc_avg_reg_1_:SE 6.186e-02
*RC pack_soc_avg_reg_2_:SI 2.990e-02
*RC pack_soc_avg_reg_2_:SE 6.186e-02
*RC pack_soc_avg_reg_3_:SI 2.990e-02
*RC pack_soc_avg_reg_3_:SE 6.186e-02
*RC pack_soc_avg_reg_4_:SI 2.990e-02
*RC pack_soc_avg_reg_4_:SE 6.186e-02
*RC pack_soc_avg_reg_5_:SI 2.990e-02
*RC pack_soc_avg_reg_5_:SE 6.186e-02
*RC pack_soc_avg_reg_6_:SI 2.990e-02
*RC pack_soc_avg_reg_6_:SE 6.186e-02
*RC pack_soc_avg_reg_7_:SI 2.990e-02
*RC pack_soc_avg_reg_7_:SE 6.186e-02
*RC pack_soc_avg_reg_8_:SI 2.990e-02
*RC pack_soc_avg_reg_8_:SE 6.186e-02
*RC pack_soc_avg_reg_9_:SI 2.990e-02
*RC pack_soc_avg_reg_9_:SE 6.186e-02
*RC pack_soc_avg_reg_10_:SI 2.990e-02
*RC pack_soc_avg_reg_10_:SE 6.186e-02
*RC pack_soc_avg_reg_11_:SI 2.990e-02
*RC pack_soc_avg_reg_11_:SE 6.186e-02
*RC pack_soc_avg_reg_12_:SI 2.990e-02
*RC pack_soc_avg_reg_12_:SE 6.186e-02
*RC pack_soc_avg_reg_13_:SI 2.990e-02
*RC pack_soc_avg_reg_13_:SE 6.186e-02
*RC pack_soc_avg_reg_14_:SI 2.990e-02
*RC pack_soc_avg_reg_14_:SE 6.186e-02
*RC spi_start_reg:SI 2.990e-02
*RC spi_start_reg:SE 6.186e-02
*RC spi_tx_byte_reg_4_:SI 2.990e-02
*RC spi_tx_byte_reg_4_:SE 6.186e-02
*RC max_temp_seen_reg_4_:SI 2.990e-02
*RC max_temp_seen_reg_4_:SE 6.186e-02
*RC state_reg_0_:SI 2.990e-02
*RC state_reg_0_:SE 6.186e-02
*RC global_fault_code_reg_3_:SI 2.990e-02
*RC global_fault_code_reg_3_:SE 6.186e-02
*RC global_fault_code_reg_4_:SI 2.990e-02
*RC global_fault_code_reg_4_:SE 6.186e-02
*RC max_temp_seen_reg_9_:SI 2.990e-02
*RC max_temp_seen_reg_9_:SE 6.186e-02
*RC max_temp_seen_reg_2_:SI 2.990e-02
*RC max_temp_seen_reg_2_:SE 6.186e-02
*RC global_fault_code_reg_5_:SI 2.990e-02
*RC global_fault_code_reg_5_:SE 6.186e-02
*RC max_temp_seen_reg_8_:SI 2.990e-02
*RC max_temp_seen_reg_8_:SE 6.186e-02
*RC max_temp_seen_reg_1_:SI 2.990e-02
*RC max_temp_seen_reg_1_:SE 6.186e-02
*RC global_fault_code_reg_7_:SI 2.990e-02
*RC global_fault_code_reg_7_:SE 6.186e-02
*RC max_temp_seen_reg_10_:SI 2.990e-02
*RC max_temp_seen_reg_10_:SE 6.186e-02
*RC max_temp_seen_reg_6_:SI 2.990e-02
*RC max_temp_seen_reg_6_:SE 6.186e-02
*RC global_fault_code_reg_1_:SI 2.990e-02
*RC global_fault_code_reg_1_:SE 6.186e-02
*RC max_temp_seen_reg_0_:SI 2.990e-02
*RC max_temp_seen_reg_0_:SE 6.186e-02
*RC global_fault_code_reg_2_:SI 2.990e-02
*RC global_fault_code_reg_2_:SE 6.186e-02
*RC global_fault_code_reg_6_:SI 2.990e-02
*RC global_fault_code_reg_6_:SE 6.186e-02
*RC global_fault_code_reg_0_:SI 2.990e-02
*RC global_fault_code_reg_0_:SE 6.186e-02
*RC poll_busy_reg:SE 6.186e-02
*RC poll_busy_reg:SI 2.990e-02
*RC clk_gate_max_temp_seen_reg/latch:SE 2.928e-02
*END

*R_NET n198 4.062e-01
*DRIVER U210:X
*CELL SAEDRVT14_ND2_MM_0P5
*C2_R1_C1 2.031e-01 5.002e-02 2.031e-01 
*LOADS
*RC U211:A 3.981e-03
*RC U212:A2 6.187e-03
*END

*R_NET n199 1.586e-01
*DRIVER U211:X
*CELL SAEDRVT14_INV_0P5
*C2_R1_C1 7.928e-02 2.192e-02 7.928e-02 
*LOADS
*RC U173:A 3.476e-03
*END

*R_NET n200 2.511e-01
*DRIVER U216:X
*CELL SAEDRVT14_ND2_CDC_1
*C2_R1_C1 1.255e-01 2.192e-02 1.255e-01 
*LOADS
*RC U217:A2 5.504e-03
*END

*R_NET n201 1.586e-01
*DRIVER U213:X
*CELL SAEDRVT14_AN2_0P5
*C2_R1_C1 7.928e-02 2.192e-02 7.928e-02 
*LOADS
*RC U136:A 3.476e-03
*END

*R_NET n202 1.586e-01
*DRIVER U224:X
*CELL SAEDRVT14_AN2B_MM_1
*C2_R1_C1 7.928e-02 2.192e-02 7.928e-02 
*LOADS
*RC U128:A 3.476e-03
*END

*R_NET n203 2.705e-01
*DRIVER U233:X
*CELL SAEDRVT14_ND2_CDC_1
*C2_R1_C1 1.353e-01 2.192e-02 1.353e-01 
*LOADS
*RC U234:A2 5.931e-03
*END

*R_NET n204 1.789e-01
*DRIVER U234:X
*CELL SAEDRVT14_AOI21_0P5
*C2_R1_C1 8.947e-02 2.192e-02 8.947e-02 
*LOADS
*RC U235:B 3.923e-03
*END

*R_NET n205 3.522e-01
*DRIVER U209:X
*CELL SAEDRVT14_ND2_ECO_1
*C2_R1_C1 1.761e-01 2.192e-02 1.761e-01 
*LOADS
*RC U235:A2 7.722e-03
*END

*R_NET n206 3.327e-01
*DRIVER U214:X
*CELL SAEDRVT14_NR2_1
*C2_R1_C1 1.663e-01 5.002e-02 1.663e-01 
*LOADS
*RC U213:A1 4.381e-03
*RC U239:B 3.954e-03
*END

*R_NET n207 1.586e-01
*DRIVER U212:X
*CELL SAEDRVT14_AN2_0P5
*C2_R1_C1 7.928e-02 2.192e-02 7.928e-02 
*LOADS
*RC U178:A 3.476e-03
*END

*R_NET n208 1.586e-01
*DRIVER U236:X
*CELL SAEDRVT14_NR2_1
*C2_R1_C1 7.928e-02 2.192e-02 7.928e-02 
*LOADS
*RC U168:A 3.476e-03
*END

*R_NET n209 5.001e-01
*DRIVER U221:X
*CELL SAEDRVT14_AOI21_0P5
*C2_R1_C1 2.501e-01 5.002e-02 2.501e-01 
*LOADS
*RC U223:A1 5.279e-03
*RC U251:B 7.229e-03
*END

*R_NET n210 9.592e-01
*DRIVER U220:X
*CELL SAEDRVT14_INV_0P5
*C2_R1_C1 4.796e-01 1.158e-01 4.796e-01 
*LOADS
*RC U221:A2 7.870e-03
*RC U233:A2 7.048e-03
*RC U238:A1 5.557e-03
*RC U251:A2 8.237e-03
*END

*R_NET n211 1.273e+00
*DRIVER U219:X
*CELL SAEDRVT14_INV_0P5
*C2_R1_C1 6.366e-01 1.542e-01 6.366e-01 
*LOADS
*RC U209:A2 7.979e-03
*RC U233:A1 9.958e-03
*RC U221:A1 7.628e-03
*RC U222:A3 7.049e-03
*RC U251:A1 7.744e-03
*END

*R_NET n212 3.387e-01
*DRIVER U222:X
*CELL SAEDRVT14_AN3_0P5
*C2_R1_C1 1.694e-01 5.002e-02 1.694e-01 
*LOADS
*RC U223:B 4.236e-03
*RC U252:B 4.236e-03
*END

*R_NET n213 2.322e-01
*DRIVER U117:X
*CELL SAEDLVT14_TIE1_4
*C2_R1_C1 1.161e-01 2.192e-02 1.161e-01 
*LOADS
*RC spi_tx_byte_reg_4_:D 5.091e-03
*END

*R_NET u_spi_master/n72 1.586e-01
*DRIVER u_spi_master/cs_n_reg_2_:Q
*CELL SAEDRVT14_FSDPSBQ_V2LP_1
*C2_R1_C1 7.928e-02 2.192e-02 7.928e-02 
*LOADS
*RC u_spi_master/U9:A 3.476e-03
*END

*R_NET u_spi_master/n73 1.586e-01
*DRIVER u_spi_master/cs_n_reg_1_:Q
*CELL SAEDRVT14_FSDPSBQ_V2LP_1
*C2_R1_C1 7.928e-02 2.192e-02 7.928e-02 
*LOADS
*RC u_spi_master/U5:A 3.476e-03
*END

*R_NET u_spi_master/n74 1.586e-01
*DRIVER u_spi_master/cs_n_reg_0_:Q
*CELL SAEDRVT14_FSDPSBQ_V2LP_1
*C2_R1_C1 7.928e-02 2.192e-02 7.928e-02 
*LOADS
*RC u_spi_master/U7:A 3.476e-03
*END

*R_NET u_spi_master/state\[1\] 5.541e-01
*DRIVER u_spi_master/state_reg_1_:Q
*CELL SAEDRVT14_FSDPRBQ_V2LP_2
*C2_R1_C1 2.770e-01 8.117e-02 2.770e-01 
*LOADS
*RC u_spi_master/U60:A 4.318e-03
*RC u_spi_master/done_reg:D 6.311e-03
*RC u_spi_master/U83:B1 4.384e-03
*END

*R_NET u_spi_master/state\[0\] 1.586e-01
*DRIVER u_spi_master/state_reg_0_:Q
*CELL SAEDRVT14_FSDPRBQ_V2LP_2
*C2_R1_C1 7.928e-02 2.192e-02 7.928e-02 
*LOADS
*RC u_spi_master/U44:A 3.476e-03
*END

*R_NET u_spi_master/bit_cnt\[3\] 4.575e-01
*DRIVER u_spi_master/bit_cnt_reg_3_:Q
*CELL SAEDRVT14_FSDPRBQ_V2LP_2
*C2_R1_C1 2.288e-01 5.002e-02 2.288e-01 
*LOADS
*RC u_spi_master/U56:A1 5.433e-03
*RC u_spi_master/U84:A2 6.164e-03
*END

*R_NET u_spi_master/bit_cnt\[2\] 5.821e-01
*DRIVER u_spi_master/bit_cnt_reg_2_:Q
*CELL SAEDRVT14_FSDPRBQ_V2LP_2
*C2_R1_C1 2.911e-01 5.002e-02 2.911e-01 
*LOADS
*RC u_spi_master/U72:A2 6.071e-03
*RC u_spi_master/U89:A2 8.487e-03
*END

*R_NET u_spi_master/bit_cnt\[1\] 5.885e-01
*DRIVER u_spi_master/bit_cnt_reg_1_:Q
*CELL SAEDRVT14_FSDPRBQ_V2LP_2
*C2_R1_C1 2.943e-01 5.002e-02 2.943e-01 
*LOADS
*RC u_spi_master/U58:A2 6.187e-03
*RC u_spi_master/U69:A2 8.824e-03
*END

*R_NET u_spi_master/bit_cnt\[0\] 6.070e-01
*DRIVER u_spi_master/bit_cnt_reg_0_:Q
*CELL SAEDRVT14_FSDPRBQ_V2LP_2
*C2_R1_C1 3.035e-01 8.117e-02 3.035e-01 
*LOADS
*RC u_spi_master/U58:A1 4.751e-03
*RC u_spi_master/U69:A1 6.664e-03
*RC u_spi_master/U71:A1 5.219e-03
*END

*R_NET u_spi_master/tx_shift\[6\] 2.226e-01
*DRIVER u_spi_master/tx_shift_reg_6_:Q
*CELL SAEDRVT14_FSDPRBQ_V2LP_2
*C2_R1_C1 1.113e-01 2.192e-02 1.113e-01 
*LOADS
*RC u_spi_master/U91:A2 4.880e-03
*END

*R_NET u_spi_master/tx_shift\[5\] 2.468e-01
*DRIVER u_spi_master/tx_shift_reg_5_:Q
*CELL SAEDRVT14_FSDPRBQ_V2LP_2
*C2_R1_C1 1.234e-01 2.192e-02 1.234e-01 
*LOADS
*RC u_spi_master/U55:A2 5.411e-03
*END

*R_NET u_spi_master/tx_shift\[4\] 2.226e-01
*DRIVER u_spi_master/tx_shift_reg_4_:Q
*CELL SAEDRVT14_FSDPRBQ_V2LP_2
*C2_R1_C1 1.113e-01 2.192e-02 1.113e-01 
*LOADS
*RC u_spi_master/U94:A2 4.880e-03
*END

*R_NET u_spi_master/tx_shift\[3\] 2.226e-01
*DRIVER u_spi_master/tx_shift_reg_3_:Q
*CELL SAEDRVT14_FSDPRBQ_V2LP_2
*C2_R1_C1 1.113e-01 2.192e-02 1.113e-01 
*LOADS
*RC u_spi_master/U93:A2 4.880e-03
*END

*R_NET u_spi_master/tx_shift\[2\] 2.900e-01
*DRIVER u_spi_master/tx_shift_reg_2_:Q
*CELL SAEDRVT14_FSDPRBQ_V2LP_2
*C2_R1_C1 1.450e-01 2.192e-02 1.450e-01 
*LOADS
*RC u_spi_master/U87:A2 6.358e-03
*END

*R_NET u_spi_master/tx_shift\[1\] 2.468e-01
*DRIVER u_spi_master/tx_shift_reg_1_:Q
*CELL SAEDRVT14_FSDPRBQ_V2LP_2
*C2_R1_C1 1.234e-01 2.192e-02 1.234e-01 
*LOADS
*RC u_spi_master/U54:A2 5.411e-03
*END

*R_NET u_spi_master/tx_shift\[0\] 1.691e-01
*DRIVER u_spi_master/tx_shift_reg_0_:Q
*CELL SAEDRVT14_FSDPRBQ_V2LP_2
*C2_R1_C1 8.454e-02 2.192e-02 8.454e-02 
*LOADS
*RC u_spi_master/U92:D1 3.707e-03
*END

*R_NET u_spi_master/clk_cnt\[7\] 8.163e-01
*DRIVER u_spi_master/clk_cnt_reg_7_:Q
*CELL SAEDRVT14_FSDPRBQ_V2LP_2
*C2_R1_C1 4.082e-01 5.002e-02 4.082e-01 
*LOADS
*RC u_spi_master/U76:A3 7.055e-03
*RC u_spi_master/add_x_2/U17:A2 1.336e-02
*END

*R_NET u_spi_master/clk_cnt\[6\] 8.122e-01
*DRIVER u_spi_master/clk_cnt_reg_6_:Q
*CELL SAEDRVT14_FSDPRBQ_V2LP_2
*C2_R1_C1 4.061e-01 5.002e-02 4.061e-01 
*LOADS
*RC u_spi_master/U76:A4 7.009e-03
*RC u_spi_master/add_x_2/U16:B 1.336e-02
*END

*R_NET u_spi_master/clk_cnt\[5\] 7.799e-01
*DRIVER u_spi_master/clk_cnt_reg_5_:Q
*CELL SAEDRVT14_FSDPRBQ_V2LP_2
*C2_R1_C1 3.899e-01 5.002e-02 3.899e-01 
*LOADS
*RC u_spi_master/U76:A1 6.145e-03
*RC u_spi_master/add_x_2/U15:B 1.336e-02
*END

*R_NET u_spi_master/clk_cnt\[4\] 7.753e-01
*DRIVER u_spi_master/clk_cnt_reg_4_:Q
*CELL SAEDRVT14_FSDPRBQ_V2LP_2
*C2_R1_C1 3.877e-01 5.002e-02 3.877e-01 
*LOADS
*RC u_spi_master/U50:A2 6.032e-03
*RC u_spi_master/add_x_2/U14:B 1.336e-02
*END

*R_NET u_spi_master/clk_cnt\[3\] 7.235e-01
*DRIVER u_spi_master/clk_cnt_reg_3_:Q
*CELL SAEDRVT14_FSDPRBQ_V2LP_2
*C2_R1_C1 3.617e-01 5.002e-02 3.617e-01 
*LOADS
*RC u_spi_master/U50:A1 4.735e-03
*RC u_spi_master/add_x_2/U13:B 1.336e-02
*END

*R_NET u_spi_master/clk_cnt\[2\] 8.559e-01
*DRIVER u_spi_master/clk_cnt_reg_2_:Q
*CELL SAEDRVT14_FSDPRBQ_V2LP_2
*C2_R1_C1 4.279e-01 5.002e-02 4.279e-01 
*LOADS
*RC u_spi_master/U74:A1 8.046e-03
*RC u_spi_master/add_x_2/U11:B 1.336e-02
*END

*R_NET u_spi_master/clk_cnt\[1\] 6.930e-01
*DRIVER u_spi_master/clk_cnt_reg_1_:Q
*CELL SAEDRVT14_FSDPRBQ_V2LP_2
*C2_R1_C1 3.465e-01 5.002e-02 3.465e-01 
*LOADS
*RC u_spi_master/U75:A 3.981e-03
*RC u_spi_master/add_x_2/U12:B 1.336e-02
*END

*R_NET u_spi_master/clk_cnt\[0\] 1.000e+00
*DRIVER u_spi_master/clk_cnt_reg_0_:Q
*CELL SAEDRVT14_FSDPRBQ_V2LP_2
*C2_R1_C1 5.000e-01 8.117e-02 5.000e-01 
*LOADS
*RC u_spi_master/U74:A2 6.579e-03
*RC u_spi_master/U59:A1 5.889e-03
*RC u_spi_master/add_x_2/U12:A 1.516e-02
*END

*R_NET u_spi_master/N52 2.468e-01
*DRIVER u_spi_master/add_x_2/U12:S
*CELL SAEDRVT14_ADDH_0P5
*C2_R1_C1 1.234e-01 2.192e-02 1.234e-01 
*LOADS
*RC u_spi_master/U62:A2 5.411e-03
*END

*R_NET u_spi_master/N53 2.468e-01
*DRIVER u_spi_master/add_x_2/U11:S
*CELL SAEDRVT14_ADDH_0P5
*C2_R1_C1 1.234e-01 2.192e-02 1.234e-01 
*LOADS
*RC u_spi_master/U63:A2 5.411e-03
*END

*R_NET u_spi_master/N54 2.468e-01
*DRIVER u_spi_master/add_x_2/U13:S
*CELL SAEDRVT14_ADDH_0P5
*C2_R1_C1 1.234e-01 2.192e-02 1.234e-01 
*LOADS
*RC u_spi_master/U64:A2 5.411e-03
*END

*R_NET u_spi_master/N55 2.468e-01
*DRIVER u_spi_master/add_x_2/U14:S
*CELL SAEDRVT14_ADDH_0P5
*C2_R1_C1 1.234e-01 2.192e-02 1.234e-01 
*LOADS
*RC u_spi_master/U65:A2 5.411e-03
*END

*R_NET u_spi_master/N56 2.468e-01
*DRIVER u_spi_master/add_x_2/U15:S
*CELL SAEDRVT14_ADDH_0P5
*C2_R1_C1 1.234e-01 2.192e-02 1.234e-01 
*LOADS
*RC u_spi_master/U66:A2 5.411e-03
*END

*R_NET u_spi_master/N57 2.468e-01
*DRIVER u_spi_master/add_x_2/U16:S
*CELL SAEDRVT14_ADDH_0P5
*C2_R1_C1 1.234e-01 2.192e-02 1.234e-01 
*LOADS
*RC u_spi_master/U67:A2 5.411e-03
*END

*R_NET u_spi_master/N58 2.900e-01
*DRIVER u_spi_master/add_x_2/U17:X
*CELL SAEDRVT14_EO2_V1_0P75
*C2_R1_C1 1.450e-01 2.192e-02 1.450e-01 
*LOADS
*RC u_spi_master/U95:A2 6.358e-03
*END

*R_NET u_spi_master/N84 2.322e-01
*DRIVER u_spi_master/U59:X
*CELL SAEDLVT14_NR2_MM_0P5
*C2_R1_C1 1.161e-01 2.192e-02 1.161e-01 
*LOADS
*RC u_spi_master/clk_cnt_reg_0_:D 5.091e-03
*END

*R_NET u_spi_master/N85 2.322e-01
*DRIVER u_spi_master/U62:X
*CELL SAEDRVT14_AN2_0P5
*C2_R1_C1 1.161e-01 2.192e-02 1.161e-01 
*LOADS
*RC u_spi_master/clk_cnt_reg_1_:D 5.091e-03
*END

*R_NET u_spi_master/N86 2.322e-01
*DRIVER u_spi_master/U63:X
*CELL SAEDRVT14_AN2_0P5
*C2_R1_C1 1.161e-01 2.192e-02 1.161e-01 
*LOADS
*RC u_spi_master/clk_cnt_reg_2_:D 5.091e-03
*END

*R_NET u_spi_master/N87 2.322e-01
*DRIVER u_spi_master/U64:X
*CELL SAEDRVT14_AN2_0P5
*C2_R1_C1 1.161e-01 2.192e-02 1.161e-01 
*LOADS
*RC u_spi_master/clk_cnt_reg_3_:D 5.091e-03
*END

*R_NET u_spi_master/N88 2.322e-01
*DRIVER u_spi_master/U65:X
*CELL SAEDRVT14_AN2_0P5
*C2_R1_C1 1.161e-01 2.192e-02 1.161e-01 
*LOADS
*RC u_spi_master/clk_cnt_reg_4_:D 5.091e-03
*END

*R_NET u_spi_master/N89 2.322e-01
*DRIVER u_spi_master/U66:X
*CELL SAEDRVT14_AN2_0P5
*C2_R1_C1 1.161e-01 2.192e-02 1.161e-01 
*LOADS
*RC u_spi_master/clk_cnt_reg_5_:D 5.091e-03
*END

*R_NET u_spi_master/N90 2.322e-01
*DRIVER u_spi_master/U67:X
*CELL SAEDRVT14_AN2_0P5
*C2_R1_C1 1.161e-01 2.192e-02 1.161e-01 
*LOADS
*RC u_spi_master/clk_cnt_reg_6_:D 5.091e-03
*END

*R_NET u_spi_master/N91 2.322e-01
*DRIVER u_spi_master/U95:X
*CELL SAEDRVT14_AN2_MM_1
*C2_R1_C1 1.161e-01 2.192e-02 1.161e-01 
*LOADS
*RC u_spi_master/clk_cnt_reg_7_:D 5.091e-03
*END

*R_NET u_spi_master/N93 2.322e-01
*DRIVER u_spi_master/U71:X
*CELL SAEDRVT14_NR2_1
*C2_R1_C1 1.161e-01 2.192e-02 1.161e-01 
*LOADS
*RC u_spi_master/bit_cnt_reg_0_:D 5.091e-03
*END

*R_NET u_spi_master/N95 2.322e-01
*DRIVER u_spi_master/U70:X
*CELL SAEDRVT14_NR2_1
*C2_R1_C1 1.161e-01 2.192e-02 1.161e-01 
*LOADS
*RC u_spi_master/bit_cnt_reg_1_:D 5.091e-03
*END

*R_NET u_spi_master/N97 2.322e-01
*DRIVER u_spi_master/U89:X
*CELL SAEDRVT14_OA21B_1
*C2_R1_C1 1.161e-01 2.192e-02 1.161e-01 
*LOADS
*RC u_spi_master/bit_cnt_reg_2_:D 5.091e-03
*END

*R_NET u_spi_master/N99 2.322e-01
*DRIVER u_spi_master/U84:X
*CELL SAEDRVT14_AO32_U_0P5
*C2_R1_C1 1.161e-01 2.192e-02 1.161e-01 
*LOADS
*RC u_spi_master/bit_cnt_reg_3_:D 5.091e-03
*END

*R_NET u_spi_master/N104 2.322e-01
*DRIVER u_spi_master/U81:X
*CELL SAEDRVT14_NR2_1
*C2_R1_C1 1.161e-01 2.192e-02 1.161e-01 
*LOADS
*RC u_spi_master/tx_shift_reg_0_:D 5.091e-03
*END

*R_NET u_spi_master/N105 2.322e-01
*DRIVER u_spi_master/U92:X
*CELL SAEDRVT14_MUX2_U_0P5
*C2_R1_C1 1.161e-01 2.192e-02 1.161e-01 
*LOADS
*RC u_spi_master/tx_shift_reg_1_:D 5.091e-03
*END

*R_NET u_spi_master/N106 2.322e-01
*DRIVER u_spi_master/U54:X
*CELL SAEDRVT14_AN2_0P5
*C2_R1_C1 1.161e-01 2.192e-02 1.161e-01 
*LOADS
*RC u_spi_master/tx_shift_reg_2_:D 5.091e-03
*END

*R_NET u_spi_master/N107 2.322e-01
*DRIVER u_spi_master/U87:X
*CELL SAEDRVT14_AN2_MM_1
*C2_R1_C1 1.161e-01 2.192e-02 1.161e-01 
*LOADS
*RC u_spi_master/tx_shift_reg_3_:D 5.091e-03
*END

*R_NET u_spi_master/N108 2.322e-01
*DRIVER u_spi_master/U93:X
*CELL SAEDRVT14_AO21B_0P5
*C2_R1_C1 1.161e-01 2.192e-02 1.161e-01 
*LOADS
*RC u_spi_master/tx_shift_reg_4_:D 5.091e-03
*END

*R_NET u_spi_master/N109 2.322e-01
*DRIVER u_spi_master/U94:X
*CELL SAEDRVT14_AO21B_0P5
*C2_R1_C1 1.161e-01 2.192e-02 1.161e-01 
*LOADS
*RC u_spi_master/tx_shift_reg_5_:D 5.091e-03
*END

*R_NET u_spi_master/N110 2.322e-01
*DRIVER u_spi_master/U55:X
*CELL SAEDRVT14_AN2_0P5
*C2_R1_C1 1.161e-01 2.192e-02 1.161e-01 
*LOADS
*RC u_spi_master/tx_shift_reg_6_:D 5.091e-03
*END

*R_NET u_spi_master/N120 2.322e-01
*DRIVER u_spi_master/U91:X
*CELL SAEDRVT14_AO21B_0P5
*C2_R1_C1 1.161e-01 2.192e-02 1.161e-01 
*LOADS
*RC u_spi_master/mosi_reg:D 5.091e-03
*END

*R_NET u_spi_master/N130 1.964e-01
*DRIVER u_spi_master/U100:X
*CELL SAEDRVT14_OAI21_0P5
*C2_R1_C1 9.820e-02 2.192e-02 9.820e-02 
*LOADS
*RC u_spi_master/clk_gate_tx_shift_reg/latch:EN 4.306e-03
*END

*R_NET u_spi_master/N142 1.964e-01
*DRIVER u_spi_master/U86:X
*CELL SAEDRVT14_AO32_U_0P5
*C2_R1_C1 9.820e-02 2.192e-02 9.820e-02 
*LOADS
*RC u_spi_master/clk_gate_bit_cnt_reg/latch:EN 4.306e-03
*END

*R_NET u_spi_master/N146 4.265e-01
*DRIVER u_spi_master/U57:X
*CELL SAEDRVT14_NR2_1
*C2_R1_C1 2.133e-01 5.002e-02 2.133e-01 
*LOADS
*RC u_spi_master/U49:A1 6.423e-03
*RC u_spi_master/U4:D1 4.244e-03
*END

*R_NET u_spi_master/N147 3.256e-01
*DRIVER u_spi_master/U99:X
*CELL SAEDRVT14_ND2B_U_0P5
*C2_R1_C1 1.628e-01 2.192e-02 1.628e-01 
*LOADS
*RC u_spi_master/U4:S 7.137e-03
*END

*R_NET u_spi_master/N149 2.438e-01
*DRIVER u_spi_master/U96:X
*CELL SAEDRVT14_OR3_0P5
*C2_R1_C1 1.219e-01 2.192e-02 1.219e-01 
*LOADS
*RC u_spi_master/cs_n_reg_0_:D 5.345e-03
*END

*R_NET u_spi_master/N151 2.438e-01
*DRIVER u_spi_master/U97:X
*CELL SAEDRVT14_OR3_0P5
*C2_R1_C1 1.219e-01 2.192e-02 1.219e-01 
*LOADS
*RC u_spi_master/cs_n_reg_1_:D 5.345e-03
*END

*R_NET u_spi_master/N152 1.586e-01
*DRIVER u_spi_master/U52:X
*CELL SAEDRVT14_AN2_0P5
*C2_R1_C1 7.928e-02 2.192e-02 7.928e-02 
*LOADS
*RC u_spi_master/U53:A 3.476e-03
*END

*R_NET u_spi_master/N153 2.438e-01
*DRIVER u_spi_master/U98:X
*CELL SAEDRVT14_ND2_CDC_1
*C2_R1_C1 1.219e-01 2.192e-02 1.219e-01 
*LOADS
*RC u_spi_master/cs_n_reg_2_:D 5.345e-03
*END

*R_NET u_spi_master/N167 4.056e-01
*DRIVER u_spi_master/I_4:X
*CELL SAEDRVT14_INV_0P5
*C2_R1_C1 2.028e-01 5.002e-02 2.028e-01 
*LOADS
*RC u_spi_master/U77:A 3.981e-03
*RC u_spi_master/U86:A2 6.164e-03
*END

*R_NET u_spi_master/net921 2.047e+00
*DRIVER u_spi_master/clk_gate_tx_shift_reg/latch:Q
*CELL SAEDRVT14_CKGTPLT_V5_1
*C2_R1_C1 1.024e+00 2.964e-01 1.024e+00 
*LOADS
*RC u_spi_master/tx_shift_reg_5_:CK 9.482e-03
*RC u_spi_master/mosi_reg:CK 9.482e-03
*RC u_spi_master/tx_shift_reg_0_:CK 9.482e-03
*RC u_spi_master/tx_shift_reg_1_:CK 9.482e-03
*RC u_spi_master/tx_shift_reg_3_:CK 9.482e-03
*RC u_spi_master/tx_shift_reg_4_:CK 9.482e-03
*RC u_spi_master/tx_shift_reg_6_:CK 9.482e-03
*RC u_spi_master/tx_shift_reg_2_:CK 9.482e-03
*END

*R_NET u_spi_master/net927 2.047e+00
*DRIVER u_spi_master/clk_gate_clk_cnt_reg/latch:Q
*CELL SAEDRVT14_CKGTPLT_V5_1
*C2_R1_C1 1.024e+00 2.964e-01 1.024e+00 
*LOADS
*RC u_spi_master/clk_cnt_reg_1_:CK 9.482e-03
*RC u_spi_master/clk_cnt_reg_2_:CK 9.482e-03
*RC u_spi_master/clk_cnt_reg_3_:CK 9.482e-03
*RC u_spi_master/clk_cnt_reg_4_:CK 9.482e-03
*RC u_spi_master/clk_cnt_reg_7_:CK 9.482e-03
*RC u_spi_master/clk_cnt_reg_5_:CK 9.482e-03
*RC u_spi_master/clk_cnt_reg_6_:CK 9.482e-03
*RC u_spi_master/clk_cnt_reg_0_:CK 9.482e-03
*END

*R_NET u_spi_master/net932 1.017e+00
*DRIVER u_spi_master/clk_gate_bit_cnt_reg/latch:Q
*CELL SAEDRVT14_CKGTPLT_V5_1
*C2_R1_C1 5.086e-01 1.158e-01 5.086e-01 
*LOADS
*RC u_spi_master/bit_cnt_reg_0_:CK 7.361e-03
*RC u_spi_master/bit_cnt_reg_2_:CK 7.361e-03
*RC u_spi_master/bit_cnt_reg_3_:CK 7.361e-03
*RC u_spi_master/bit_cnt_reg_1_:CK 7.361e-03
*END

*R_NET u_spi_master/net937 9.218e-01
*DRIVER u_spi_master/clk_gate_cs_n_reg/latch:Q
*CELL SAEDRVT14_CKGTPLT_V5_1
*C2_R1_C1 4.609e-01 1.158e-01 4.609e-01 
*LOADS
*RC u_spi_master/cs_n_reg_1_:CK 6.440e-03
*RC u_spi_master/cs_n_reg_0_:CK 6.440e-03
*RC u_spi_master/cs_n_reg_2_:CK 6.440e-03
*RC u_spi_master/done_reg:CK 7.361e-03
*END

*R_NET u_spi_master/n22 2.322e-01
*DRIVER u_spi_master/U79:X
*CELL SAEDRVT14_NR2_1
*C2_R1_C1 1.161e-01 2.192e-02 1.161e-01 
*LOADS
*RC u_spi_master/state_reg_1_:D 5.091e-03
*END

*R_NET u_spi_master/n28 2.322e-01
*DRIVER u_spi_master/U4:X
*CELL SAEDRVT14_MUX2_U_0P5
*C2_R1_C1 1.161e-01 2.192e-02 1.161e-01 
*LOADS
*RC u_spi_master/sclk_reg:D 5.091e-03
*END

*R_NET u_spi_master/n30 2.322e-01
*DRIVER u_spi_master/U83:X
*CELL SAEDRVT14_OAI22_0P5
*C2_R1_C1 1.161e-01 2.192e-02 1.161e-01 
*LOADS
*RC u_spi_master/state_reg_0_:D 5.091e-03
*END

*R_NET u_spi_master/n1 1.586e-01
*DRIVER u_spi_master/U5:X
*CELL SAEDRVT14_INV_0P5
*C2_R1_C1 7.928e-02 2.192e-02 7.928e-02 
*LOADS
*RC u_spi_master/U6:A 3.476e-03
*END

*R_NET u_spi_master/n3 1.586e-01
*DRIVER u_spi_master/U7:X
*CELL SAEDRVT14_INV_0P5
*C2_R1_C1 7.928e-02 2.192e-02 7.928e-02 
*LOADS
*RC u_spi_master/U8:A 3.476e-03
*END

*R_NET u_spi_master/n5 1.586e-01
*DRIVER u_spi_master/U9:X
*CELL SAEDRVT14_INV_0P5
*C2_R1_C1 7.928e-02 2.192e-02 7.928e-02 
*LOADS
*RC u_spi_master/U10:A 3.476e-03
*END

*R_NET u_spi_master/n7 1.029e+00
*DRIVER u_spi_master/U12:X
*CELL SAEDRVT14_INV_0P5
*C2_R1_C1 5.144e-01 1.158e-01 5.144e-01 
*LOADS
*RC u_spi_master/U97:A3 6.631e-03
*RC u_spi_master/U96:A3 6.631e-03
*RC u_spi_master/U100:A2 1.023e-02
*RC u_spi_master/U13:A2 6.280e-03
*END

*R_NET u_spi_master/n8 1.051e+00
*DRIVER u_spi_master/U14:X
*CELL SAEDRVT14_INV_0P5
*C2_R1_C1 5.255e-01 5.002e-02 5.255e-01 
*LOADS
*RC u_spi_master/tx_shift_reg_2_:RD 1.314e-02
*RC u_spi_master/done_reg:RD 1.314e-02
*END

*R_NET u_spi_master/n9 1.051e+00
*DRIVER u_spi_master/U15:X
*CELL SAEDRVT14_INV_0P5
*C2_R1_C1 5.255e-01 5.002e-02 5.255e-01 
*LOADS
*RC u_spi_master/clk_cnt_reg_4_:RD 1.314e-02
*RC u_spi_master/clk_cnt_reg_1_:RD 1.314e-02
*END

*R_NET u_spi_master/n10 9.785e-01
*DRIVER u_spi_master/U16:X
*CELL SAEDRVT14_INV_0P5
*C2_R1_C1 4.892e-01 5.002e-02 4.892e-01 
*LOADS
*RC u_spi_master/clk_cnt_reg_6_:RD 1.314e-02
*RC u_spi_master/cs_n_reg_2_:SD 1.133e-02
*END

*R_NET u_spi_master/n11 6.398e-01
*DRIVER u_spi_master/U17:X
*CELL SAEDRVT14_INV_0P5
*C2_R1_C1 3.199e-01 1.158e-01 3.199e-01 
*LOADS
*RC u_spi_master/U21:A 4.629e-03
*RC u_spi_master/U20:A 4.629e-03
*RC u_spi_master/U19:A 4.629e-03
*RC u_spi_master/U18:A 4.629e-03
*END

*R_NET u_spi_master/n12 1.051e+00
*DRIVER u_spi_master/U18:X
*CELL SAEDRVT14_INV_0P5
*C2_R1_C1 5.255e-01 5.002e-02 5.255e-01 
*LOADS
*RC u_spi_master/tx_shift_reg_6_:RD 1.314e-02
*RC u_spi_master/bit_cnt_reg_0_:RD 1.314e-02
*END

*R_NET u_spi_master/n13 9.785e-01
*DRIVER u_spi_master/U19:X
*CELL SAEDRVT14_INV_0P5
*C2_R1_C1 4.892e-01 5.002e-02 4.892e-01 
*LOADS
*RC u_spi_master/tx_shift_reg_3_:RD 1.314e-02
*RC u_spi_master/cs_n_reg_0_:SD 1.133e-02
*END

*R_NET u_spi_master/n14 6.847e-01
*DRIVER u_spi_master/U20:X
*CELL SAEDRVT14_INV_0P5
*C2_R1_C1 3.423e-01 5.002e-02 3.423e-01 
*LOADS
*RC u_spi_master/U40:A 3.981e-03
*RC u_spi_master/clk_cnt_reg_3_:RD 1.314e-02
*END

*R_NET u_spi_master/n15 1.051e+00
*DRIVER u_spi_master/U21:X
*CELL SAEDRVT14_INV_0P5
*C2_R1_C1 5.255e-01 5.002e-02 5.255e-01 
*LOADS
*RC u_spi_master/tx_shift_reg_5_:RD 1.314e-02
*RC u_spi_master/tx_shift_reg_4_:RD 1.314e-02
*END

*R_NET u_spi_master/n16 4.787e-01
*DRIVER u_spi_master/U22:CKOUTB
*CELL SAEDRVT14_CLKSPLT_1
*C2_R1_C1 2.394e-01 8.117e-02 2.394e-01 
*LOADS
*RC u_spi_master/U16:A 4.318e-03
*RC u_spi_master/U15:A 4.318e-03
*RC u_spi_master/U14:A 4.318e-03
*END

*R_NET u_spi_master/n17 6.847e-01
*DRIVER u_spi_master/U22:CKOUT
*CELL SAEDRVT14_CLKSPLT_1
*C2_R1_C1 3.423e-01 5.002e-02 3.423e-01 
*LOADS
*RC u_spi_master/state_reg_0_:RD 1.314e-02
*RC u_spi_master/U17:A 3.981e-03
*END

*R_NET u_spi_master/n18 4.787e-01
*DRIVER u_spi_master/U23:X
*CELL SAEDRVT14_INV_0P5
*C2_R1_C1 2.394e-01 8.117e-02 2.394e-01 
*LOADS
*RC u_spi_master/U26:A 4.318e-03
*RC u_spi_master/U25:A 4.318e-03
*RC u_spi_master/U24:A 4.318e-03
*END

*R_NET u_spi_master/n19 4.887e-01
*DRIVER u_spi_master/U24:X
*CELL SAEDRVT14_INV_0P5
*C2_R1_C1 2.443e-01 5.002e-02 2.443e-01 
*LOADS
*RC u_spi_master/U82:A1 8.046e-03
*RC u_spi_master/U86:B2 4.175e-03
*END

*R_NET u_spi_master/n20 4.944e-01
*DRIVER u_spi_master/U25:X
*CELL SAEDRVT14_INV_0P5
*C2_R1_C1 2.472e-01 5.002e-02 2.472e-01 
*LOADS
*RC u_spi_master/U71:A2 6.294e-03
*RC u_spi_master/U90:A2 6.071e-03
*END

*R_NET u_spi_master/n21 3.741e-01
*DRIVER u_spi_master/U26:X
*CELL SAEDRVT14_INV_0P5
*C2_R1_C1 1.871e-01 5.002e-02 1.871e-01 
*LOADS
*RC u_spi_master/U83:A1 4.087e-03
*RC u_spi_master/U59:A2 5.407e-03
*END

*R_NET u_spi_master/n23 3.183e-01
*DRIVER u_spi_master/U27:X
*CELL SAEDRVT14_INV_0P5
*C2_R1_C1 1.592e-01 5.002e-02 1.592e-01 
*LOADS
*RC u_spi_master/U29:A 3.981e-03
*RC u_spi_master/U28:A 3.981e-03
*END

*R_NET u_spi_master/n24 1.051e+00
*DRIVER u_spi_master/U28:X
*CELL SAEDRVT14_INV_0P5
*C2_R1_C1 5.255e-01 5.002e-02 5.255e-01 
*LOADS
*RC u_spi_master/bit_cnt_reg_1_:RD 1.314e-02
*RC u_spi_master/state_reg_1_:RD 1.314e-02
*END

*R_NET u_spi_master/n25 1.051e+00
*DRIVER u_spi_master/U29:X
*CELL SAEDRVT14_INV_0P5
*C2_R1_C1 5.255e-01 5.002e-02 5.255e-01 
*LOADS
*RC u_spi_master/tx_shift_reg_1_:RD 1.314e-02
*RC u_spi_master/bit_cnt_reg_3_:RD 1.314e-02
*END

*R_NET u_spi_master/n26 9.785e-01
*DRIVER u_spi_master/U30:X
*CELL SAEDRVT14_INV_0P5
*C2_R1_C1 4.892e-01 5.002e-02 4.892e-01 
*LOADS
*RC u_spi_master/cs_n_reg_1_:SD 1.133e-02
*RC u_spi_master/tx_shift_reg_0_:RD 1.314e-02
*END

*R_NET u_spi_master/n27 6.847e-01
*DRIVER u_spi_master/U31:X
*CELL SAEDRVT14_INV_0P5
*C2_R1_C1 3.423e-01 5.002e-02 3.423e-01 
*LOADS
*RC u_spi_master/bit_cnt_reg_2_:RD 1.314e-02
*RC u_spi_master/U27:A 3.981e-03
*END

*R_NET u_spi_master/n29 4.787e-01
*DRIVER u_spi_master/U32:X
*CELL SAEDRVT14_INV_0P5
*C2_R1_C1 2.394e-01 8.117e-02 2.394e-01 
*LOADS
*RC u_spi_master/U35:A 4.318e-03
*RC u_spi_master/U34:A 4.318e-03
*RC u_spi_master/U33:A 4.318e-03
*END

*R_NET u_spi_master/n31 5.267e-01
*DRIVER u_spi_master/U33:X
*CELL SAEDRVT14_INV_0P5
*C2_R1_C1 2.634e-01 8.117e-02 2.634e-01 
*LOADS
*RC u_spi_master/U63:A1 4.751e-03
*RC u_spi_master/U62:A1 4.751e-03
*RC u_spi_master/U64:A1 4.751e-03
*END

*R_NET u_spi_master/n32 3.799e-01
*DRIVER u_spi_master/U34:X
*CELL SAEDRVT14_INV_0P5
*C2_R1_C1 1.900e-01 5.002e-02 1.900e-01 
*LOADS
*RC u_spi_master/U67:A1 4.381e-03
*RC u_spi_master/U95:A1 5.121e-03
*END

*R_NET u_spi_master/n33 3.503e-01
*DRIVER u_spi_master/U35:X
*CELL SAEDRVT14_INV_0P5
*C2_R1_C1 1.752e-01 5.002e-02 1.752e-01 
*LOADS
*RC u_spi_master/U65:A1 4.381e-03
*RC u_spi_master/U66:A1 4.381e-03
*END

*R_NET u_spi_master/n34 4.787e-01
*DRIVER u_spi_master/U36:X
*CELL SAEDRVT14_INV_0P5
*C2_R1_C1 2.394e-01 8.117e-02 2.394e-01 
*LOADS
*RC u_spi_master/U39:A 4.318e-03
*RC u_spi_master/U38:A 4.318e-03
*RC u_spi_master/U37:A 4.318e-03
*END

*R_NET u_spi_master/n35 4.568e-01
*DRIVER u_spi_master/U37:X
*CELL SAEDRVT14_INV_0P5
*C2_R1_C1 2.284e-01 5.002e-02 2.284e-01 
*LOADS
*RC u_spi_master/U52:A2 6.187e-03
*RC u_spi_master/U86:A1 5.530e-03
*END

*R_NET u_spi_master/n36 4.537e-01
*DRIVER u_spi_master/U38:X
*CELL SAEDRVT14_INV_0P5
*C2_R1_C1 2.269e-01 5.002e-02 2.269e-01 
*LOADS
*RC u_spi_master/U11:A2 6.187e-03
*RC u_spi_master/U86:B1 5.452e-03
*END

*R_NET u_spi_master/n37 5.051e-01
*DRIVER u_spi_master/U39:X
*CELL SAEDRVT14_INV_0P5
*C2_R1_C1 2.526e-01 5.002e-02 2.526e-01 
*LOADS
*RC u_spi_master/U61:A1 8.046e-03
*RC u_spi_master/clk_gate_clk_cnt_reg/latch:EN 4.927e-03
*END

*R_NET u_spi_master/n38 8.016e-01
*DRIVER u_spi_master/U40:X
*CELL SAEDRVT14_INV_0P5
*C2_R1_C1 4.008e-01 1.542e-01 4.008e-01 
*LOADS
*RC u_spi_master/U31:A 4.945e-03
*RC u_spi_master/U30:A 4.945e-03
*RC u_spi_master/U43:A 4.945e-03
*RC u_spi_master/U42:A 4.945e-03
*RC u_spi_master/U41:A 4.945e-03
*END

*R_NET u_spi_master/n39 1.051e+00
*DRIVER u_spi_master/U41:X
*CELL SAEDRVT14_INV_0P5
*C2_R1_C1 5.255e-01 5.002e-02 5.255e-01 
*LOADS
*RC u_spi_master/clk_cnt_reg_2_:RD 1.314e-02
*RC u_spi_master/clk_cnt_reg_5_:RD 1.314e-02
*END

*R_NET u_spi_master/n40 1.051e+00
*DRIVER u_spi_master/U42:X
*CELL SAEDRVT14_INV_0P5
*C2_R1_C1 5.255e-01 5.002e-02 5.255e-01 
*LOADS
*RC u_spi_master/mosi_reg:RD 1.314e-02
*RC u_spi_master/sclk_reg:RD 1.314e-02
*END

*R_NET u_spi_master/n41 1.051e+00
*DRIVER u_spi_master/U43:X
*CELL SAEDRVT14_INV_0P5
*C2_R1_C1 5.255e-01 5.002e-02 5.255e-01 
*LOADS
*RC u_spi_master/clk_cnt_reg_7_:RD 1.314e-02
*RC u_spi_master/clk_cnt_reg_0_:RD 1.314e-02
*END

*R_NET u_spi_master/n42 8.016e-01
*DRIVER u_spi_master/U44:X
*CELL SAEDRVT14_INV_0P5
*C2_R1_C1 4.008e-01 1.542e-01 4.008e-01 
*LOADS
*RC u_spi_master/U23:A 4.945e-03
*RC u_spi_master/U48:A 4.945e-03
*RC u_spi_master/U47:A 4.945e-03
*RC u_spi_master/U46:A 4.945e-03
*RC u_spi_master/U45:A 4.945e-03
*END

*R_NET u_spi_master/n43 7.820e-01
*DRIVER u_spi_master/U45:X
*CELL SAEDRVT14_INV_0P5
*C2_R1_C1 3.910e-01 1.158e-01 3.910e-01 
*LOADS
*RC u_spi_master/U52:A1 5.092e-03
*RC u_spi_master/U54:A1 5.092e-03
*RC u_spi_master/U91:A1 6.024e-03
*RC u_spi_master/U84:A1 6.423e-03
*END

*R_NET u_spi_master/n44 7.394e-01
*DRIVER u_spi_master/U46:X
*CELL SAEDRVT14_INV_0P5
*C2_R1_C1 3.697e-01 8.117e-02 3.697e-01 
*LOADS
*RC u_spi_master/U87:A1 5.551e-03
*RC u_spi_master/U94:A1 5.621e-03
*RC u_spi_master/U92:S 8.836e-03
*END

*R_NET u_spi_master/n45 8.391e-01
*DRIVER u_spi_master/U47:X
*CELL SAEDRVT14_INV_0P5
*C2_R1_C1 4.195e-01 1.158e-01 4.195e-01 
*LOADS
*RC u_spi_master/U68:A2 7.183e-03
*RC u_spi_master/U81:A1 5.594e-03
*RC u_spi_master/U93:A1 6.024e-03
*RC u_spi_master/U84:B1 6.333e-03
*END

*R_NET u_spi_master/n46 9.037e-01
*DRIVER u_spi_master/U48:X
*CELL SAEDRVT14_INV_0P5
*C2_R1_C1 4.518e-01 1.158e-01 4.518e-01 
*LOADS
*RC u_spi_master/U69:B 5.219e-03
*RC u_spi_master/U88:A1 9.334e-03
*RC u_spi_master/U55:A1 5.092e-03
*RC u_spi_master/U100:A1 7.139e-03
*END

*R_NET u_spi_master/n47 1.586e-01
*DRIVER u_spi_master/U11:X
*CELL SAEDRVT14_AN2_0P5
*C2_R1_C1 7.928e-02 2.192e-02 7.928e-02 
*LOADS
*RC u_spi_master/U12:A 3.476e-03
*END

*R_NET u_spi_master/n48 8.222e-01
*DRIVER u_spi_master/U51:X
*CELL SAEDRVT14_INV_0P5
*C2_R1_C1 4.111e-01 1.158e-01 4.111e-01 
*LOADS
*RC u_spi_master/U68:A1 5.092e-03
*RC u_spi_master/U85:A2 7.307e-03
*RC u_spi_master/U99:B 4.599e-03
*RC u_spi_master/U78:A1 7.482e-03
*END

*R_NET u_spi_master/n49 9.460e-01
*DRIVER u_spi_master/U53:X
*CELL SAEDRVT14_INV_0P5
*C2_R1_C1 4.730e-01 1.158e-01 4.730e-01 
*LOADS
*RC u_spi_master/U99:A 7.067e-03
*RC u_spi_master/U79:A2 7.307e-03
*RC u_spi_master/U57:A2 7.307e-03
*RC u_spi_master/clk_gate_cs_n_reg/latch:EN 5.724e-03
*END

*R_NET u_spi_master/n50 1.586e-01
*DRIVER u_spi_master/U60:X
*CELL SAEDRVT14_INV_0P5
*C2_R1_C1 7.928e-02 2.192e-02 7.928e-02 
*LOADS
*RC u_spi_master/U36:A 3.476e-03
*END

*R_NET u_spi_master/n51 2.511e-01
*DRIVER u_spi_master/U69:X
*CELL SAEDRVT14_OAI21_0P5
*C2_R1_C1 1.255e-01 2.192e-02 1.255e-01 
*LOADS
*RC u_spi_master/U70:A2 5.504e-03
*END

*R_NET u_spi_master/n52 3.437e-01
*DRIVER u_spi_master/U75:X
*CELL SAEDRVT14_INV_0P5
*C2_R1_C1 1.718e-01 2.192e-02 1.718e-01 
*LOADS
*RC u_spi_master/U76:A2 7.535e-03
*END

*R_NET u_spi_master/n53 2.540e-01
*DRIVER u_spi_master/U76:X
*CELL SAEDRVT14_OR4_1
*C2_R1_C1 1.270e-01 2.192e-02 1.270e-01 
*LOADS
*RC u_spi_master/U50:A4 5.569e-03
*END

*R_NET u_spi_master/n54 2.373e-01
*DRIVER u_spi_master/U74:X
*CELL SAEDRVT14_ND2_CDC_1
*C2_R1_C1 1.186e-01 2.192e-02 1.186e-01 
*LOADS
*RC u_spi_master/U50:A3 5.202e-03
*END

*R_NET u_spi_master/n55 2.277e-01
*DRIVER u_spi_master/U73:X
*CELL SAEDRVT14_INV_0P5
*C2_R1_C1 1.139e-01 2.192e-02 1.139e-01 
*LOADS
*RC u_spi_master/U78:A3 4.993e-03
*END

*R_NET u_spi_master/n56 4.629e-01
*DRIVER u_spi_master/U77:X
*CELL SAEDRVT14_INV_0P5
*C2_R1_C1 2.314e-01 5.002e-02 2.314e-01 
*LOADS
*RC u_spi_master/U78:A2 6.762e-03
*RC u_spi_master/U57:A1 4.814e-03
*END

*R_NET u_spi_master/n57 4.177e-01
*DRIVER u_spi_master/U78:X
*CELL SAEDRVT14_OR3_0P5
*C2_R1_C1 2.088e-01 5.002e-02 2.088e-01 
*LOADS
*RC u_spi_master/U61:A2 6.071e-03
*RC u_spi_master/U79:A1 4.814e-03
*END

*R_NET u_spi_master/n58 1.988e-01
*DRIVER u_spi_master/U82:X
*CELL SAEDRVT14_ND2_CDC_1
*C2_R1_C1 9.941e-02 2.192e-02 9.941e-02 
*LOADS
*RC u_spi_master/U83:B2 4.359e-03
*END

*R_NET u_spi_master/n59 1.781e-01
*DRIVER u_spi_master/U61:X
*CELL SAEDRVT14_ND2_CDC_1
*C2_R1_C1 8.905e-02 2.192e-02 8.905e-02 
*LOADS
*RC u_spi_master/U83:A2 3.905e-03
*END

*R_NET u_spi_master/n60 5.195e-01
*DRIVER u_spi_master/U56:X
*CELL SAEDLVT14_NR2_MM_0P5
*C2_R1_C1 2.597e-01 8.117e-02 2.597e-01 
*LOADS
*RC u_spi_master/U73:A 4.318e-03
*RC u_spi_master/U84:B2 4.528e-03
*RC u_spi_master/U85:A1 5.219e-03
*END

*R_NET u_spi_master/n61 6.664e-01
*DRIVER u_spi_master/U72:X
*CELL SAEDRVT14_ND2_CDC_1
*C2_R1_C1 3.332e-01 8.117e-02 3.332e-01 
*LOADS
*RC u_spi_master/U56:A2 5.861e-03
*RC u_spi_master/U84:A3 5.888e-03
*RC u_spi_master/U88:A2 6.579e-03
*END

*R_NET u_spi_master/n62 2.159e-01
*DRIVER u_spi_master/U88:X
*CELL SAEDRVT14_ND2_CDC_1
*C2_R1_C1 1.079e-01 2.192e-02 1.079e-01 
*LOADS
*RC u_spi_master/U89:B 4.733e-03
*END

*R_NET u_spi_master/n63 7.625e-01
*DRIVER u_spi_master/U58:X
*CELL SAEDRVT14_AN2_0P5
*C2_R1_C1 3.813e-01 8.117e-02 3.813e-01 
*LOADS
*RC u_spi_master/U89:A1 6.697e-03
*RC u_spi_master/U70:A1 5.219e-03
*RC u_spi_master/U72:A1 8.716e-03
*END

*R_NET u_spi_master/n64 5.447e-01
*DRIVER u_spi_master/U90:X
*CELL SAEDRVT14_ND2_CDC_1
*C2_R1_C1 2.723e-01 8.117e-02 2.723e-01 
*LOADS
*RC u_spi_master/U91:B 4.913e-03
*RC u_spi_master/U93:B 4.913e-03
*RC u_spi_master/U94:B 4.913e-03
*END

*R_NET u_spi_master/n65 1.586e-01
*DRIVER u_spi_master/U68:X
*CELL SAEDRVT14_AN2_0P5
*C2_R1_C1 7.928e-02 2.192e-02 7.928e-02 
*LOADS
*RC u_spi_master/U32:A 3.476e-03
*END

*R_NET u_spi_master/n66 5.168e-01
*DRIVER u_spi_master/U80:X
*CELL SAEDRVT14_INV_0P5
*C2_R1_C1 2.584e-01 5.002e-02 2.584e-01 
*LOADS
*RC u_spi_master/U81:A2 6.294e-03
*RC u_spi_master/U97:A2 6.762e-03
*END

*R_NET u_spi_master/n67 3.211e-01
*DRIVER u_spi_master/U13:X
*CELL SAEDLVT14_NR2_MM_0P5
*C2_R1_C1 1.606e-01 2.192e-02 1.606e-01 
*LOADS
*RC u_spi_master/U98:A1 7.040e-03
*END

*R_NET u_spi_master/n68 1.586e-01
*DRIVER u_spi_master/U50:X
*CELL SAEDRVT14_NR4_0P75
*C2_R1_C1 7.928e-02 2.192e-02 7.928e-02 
*LOADS
*RC u_spi_master/U51:A 3.476e-03
*END

*R_NET u_spi_master/n69 4.719e-01
*DRIVER u_spi_master/U85:X
*CELL SAEDRVT14_NR2_1
*C2_R1_C1 2.359e-01 5.002e-02 2.359e-01 
*LOADS
*RC u_spi_master/U49:A2 6.441e-03
*RC u_spi_master/U86:A3 5.432e-03
*END

*R_NET u_spi_master/n70 1.789e-01
*DRIVER u_spi_master/U49:X
*CELL SAEDRVT14_ND2_ECO_1
*C2_R1_C1 8.947e-02 2.192e-02 8.947e-02 
*LOADS
*RC u_spi_master/U100:B 3.923e-03
*END

*R_NET u_spi_master/n71 1.961e+01
*DRIVER u_spi_master/U3:X
*CELL SAEDLVT14_TIE0_V1_2
*C2_R1_C1 9.804e+00 6.872e+00 9.804e+00 
*LOADS
*RC u_spi_master/clk_gate_tx_shift_reg/latch:SE 2.595e-02
*RC u_spi_master/clk_gate_clk_cnt_reg/latch:SE 2.595e-02
*RC u_spi_master/clk_gate_bit_cnt_reg/latch:SE 2.595e-02
*RC u_spi_master/tx_shift_reg_5_:SE 5.518e-02
*RC u_spi_master/tx_shift_reg_5_:SI 2.650e-02
*RC u_spi_master/mosi_reg:SI 2.650e-02
*RC u_spi_master/mosi_reg:SE 5.518e-02
*RC u_spi_master/bit_cnt_reg_0_:SE 5.518e-02
*RC u_spi_master/bit_cnt_reg_0_:SI 2.650e-02
*RC u_spi_master/bit_cnt_reg_2_:SE 5.518e-02
*RC u_spi_master/bit_cnt_reg_2_:SI 2.650e-02
*RC u_spi_master/clk_cnt_reg_1_:SE 5.518e-02
*RC u_spi_master/clk_cnt_reg_1_:SI 2.650e-02
*RC u_spi_master/clk_cnt_reg_2_:SE 5.518e-02
*RC u_spi_master/clk_cnt_reg_2_:SI 2.650e-02
*RC u_spi_master/clk_cnt_reg_3_:SE 5.518e-02
*RC u_spi_master/clk_cnt_reg_3_:SI 2.650e-02
*RC u_spi_master/clk_cnt_reg_4_:SE 5.518e-02
*RC u_spi_master/clk_cnt_reg_4_:SI 2.650e-02
*RC u_spi_master/clk_cnt_reg_7_:SE 5.518e-02
*RC u_spi_master/clk_cnt_reg_7_:SI 2.650e-02
*RC u_spi_master/tx_shift_reg_0_:SE 5.518e-02
*RC u_spi_master/tx_shift_reg_0_:SI 2.650e-02
*RC u_spi_master/tx_shift_reg_1_:SE 5.518e-02
*RC u_spi_master/tx_shift_reg_1_:SI 2.650e-02
*RC u_spi_master/tx_shift_reg_3_:SE 5.518e-02
*RC u_spi_master/tx_shift_reg_3_:SI 2.650e-02
*RC u_spi_master/tx_shift_reg_4_:SE 5.518e-02
*RC u_spi_master/tx_shift_reg_4_:SI 2.650e-02
*RC u_spi_master/tx_shift_reg_6_:SE 5.518e-02
*RC u_spi_master/tx_shift_reg_6_:SI 2.650e-02
*RC u_spi_master/state_reg_0_:SE 5.518e-02
*RC u_spi_master/state_reg_0_:SI 2.650e-02
*RC u_spi_master/cs_n_reg_1_:SE 5.126e-02
*RC u_spi_master/cs_n_reg_1_:SI 3.530e-02
*RC u_spi_master/cs_n_reg_0_:SE 5.126e-02
*RC u_spi_master/cs_n_reg_0_:SI 3.530e-02
*RC u_spi_master/cs_n_reg_2_:SE 5.126e-02
*RC u_spi_master/cs_n_reg_2_:SI 3.530e-02
*RC u_spi_master/clk_cnt_reg_5_:SE 5.518e-02
*RC u_spi_master/clk_cnt_reg_5_:SI 2.650e-02
*RC u_spi_master/tx_shift_reg_2_:SE 5.518e-02
*RC u_spi_master/tx_shift_reg_2_:SI 2.650e-02
*RC u_spi_master/bit_cnt_reg_3_:SE 5.518e-02
*RC u_spi_master/bit_cnt_reg_3_:SI 2.650e-02
*RC u_spi_master/done_reg:SE 5.518e-02
*RC u_spi_master/done_reg:SI 2.650e-02
*RC u_spi_master/clk_cnt_reg_6_:SE 5.518e-02
*RC u_spi_master/clk_cnt_reg_6_:SI 2.650e-02
*RC u_spi_master/bit_cnt_reg_1_:SE 5.518e-02
*RC u_spi_master/bit_cnt_reg_1_:SI 2.650e-02
*RC u_spi_master/clk_cnt_reg_0_:SE 5.518e-02
*RC u_spi_master/clk_cnt_reg_0_:SI 2.650e-02
*RC u_spi_master/state_reg_1_:SE 5.518e-02
*RC u_spi_master/state_reg_1_:SI 2.650e-02
*RC u_spi_master/sclk_reg:SE 5.518e-02
*RC u_spi_master/sclk_reg:SI 2.650e-02
*RC u_spi_master/clk_gate_cs_n_reg/latch:SE 2.595e-02
*END

*R_NET u_curr_sup/allowed_current_5_ 1.586e-01
*DRIVER u_curr_sup/allowed_current_reg_5_:Q
*CELL SAEDRVT14_FSDPSBQ_V2LP_1
*C2_R1_C1 7.928e-02 2.192e-02 7.928e-02 
*LOADS
*RC u_curr_sup/U7:A 3.476e-03
*END

*R_NET u_curr_sup/n36 1.586e-01
*DRIVER u_curr_sup/allowed_current_reg_3_:Q
*CELL SAEDRVT14_FSDPSBQ_V2LP_1
*C2_R1_C1 7.928e-02 2.192e-02 7.928e-02 
*LOADS
*RC u_curr_sup/U9:A 3.476e-03
*END

*R_NET u_curr_sup/n37 1.586e-01
*DRIVER u_curr_sup/allowed_current_reg_2_:Q
*CELL SAEDRVT14_FSDPSBQ_V2LP_1
*C2_R1_C1 7.928e-02 2.192e-02 7.928e-02 
*LOADS
*RC u_curr_sup/U11:A 3.476e-03
*END

*R_NET u_curr_sup/N3 8.520e-01
*DRIVER u_curr_sup/U38:X
*CELL SAEDRVT14_OR4_1
*C2_R1_C1 4.260e-01 8.117e-02 4.260e-01 
*LOADS
*RC u_curr_sup/current_warn_reg:D 6.311e-03
*RC u_curr_sup/U39:A2 9.558e-03
*RC u_curr_sup/U40:A2 7.326e-03
*END

*R_NET u_curr_sup/N4 7.126e-01
*DRIVER u_curr_sup/U20:X
*CELL SAEDRVT14_ND2_MM_0P5
*C2_R1_C1 3.563e-01 8.117e-02 3.563e-01 
*LOADS
*RC u_curr_sup/U3:A 7.108e-03
*RC u_curr_sup/current_trip_reg:D 6.311e-03
*RC u_curr_sup/U29:A2 5.861e-03
*END

*R_NET u_curr_sup/N19 2.322e-01
*DRIVER u_curr_sup/U34:X
*CELL SAEDRVT14_INV_0P5
*C2_R1_C1 1.161e-01 2.192e-02 1.161e-01 
*LOADS
*RC u_curr_sup/allowed_current_reg_4_:D 5.091e-03
*END

*R_NET u_curr_sup/N20 4.036e-01
*DRIVER u_curr_sup/U33:X
*CELL SAEDRVT14_AOI21_0P5
*C2_R1_C1 2.018e-01 5.002e-02 2.018e-01 
*LOADS
*RC u_curr_sup/U21:A 3.981e-03
*RC u_curr_sup/allowed_current_reg_5_:D 6.113e-03
*END

*R_NET u_curr_sup/N32 1.586e-01
*DRIVER u_curr_sup/U23:X
*CELL SAEDRVT14_AN2_0P5
*C2_R1_C1 7.928e-02 2.192e-02 7.928e-02 
*LOADS
*RC u_curr_sup/U24:A 3.476e-03
*END

*R_NET u_curr_sup/N33 2.322e-01
*DRIVER u_curr_sup/U3:X
*CELL SAEDRVT14_NR2B_2
*C2_R1_C1 1.161e-01 2.192e-02 1.161e-01 
*LOADS
*RC u_curr_sup/supervisor_code_reg_1_:D 5.091e-03
*END

*R_NET u_curr_sup/N34 2.322e-01
*DRIVER u_curr_sup/U28:X
*CELL SAEDRVT14_AN2_0P5
*C2_R1_C1 1.161e-01 2.192e-02 1.161e-01 
*LOADS
*RC u_curr_sup/supervisor_code_reg_2_:D 5.091e-03
*END

*R_NET u_curr_sup/N36 4.612e-01
*DRIVER u_curr_sup/U4:X
*CELL SAEDRVT14_ND2_CDC_1
*C2_R1_C1 2.306e-01 5.002e-02 2.306e-01 
*LOADS
*RC u_curr_sup/supervisor_code_reg_6_:D 5.823e-03
*RC u_curr_sup/U40:A3 5.710e-03
*END

*R_NET u_curr_sup/N37 2.322e-01
*DRIVER u_curr_sup/U40:X
*CELL SAEDRVT14_OR3_0P5
*C2_R1_C1 1.161e-01 2.192e-02 1.161e-01 
*LOADS
*RC u_curr_sup/supervisor_code_reg_5_:D 5.091e-03
*END

*R_NET u_curr_sup/n19 8.933e+00
*DRIVER u_curr_sup/U6:X
*CELL SAEDLVT14_TIE0_V1_2
*C2_R1_C1 4.466e+00 2.310e+00 4.466e+00 
*LOADS
*RC u_curr_sup/allowed_current_reg_2_:SE 3.792e-02
*RC u_curr_sup/allowed_current_reg_2_:SI 2.595e-02
*RC u_curr_sup/current_warn_reg:SE 4.086e-02
*RC u_curr_sup/current_warn_reg:SI 1.935e-02
*RC u_curr_sup/supervisor_code_reg_6_:SE 4.086e-02
*RC u_curr_sup/supervisor_code_reg_6_:SI 1.935e-02
*RC u_curr_sup/supervisor_code_reg_2_:SE 4.086e-02
*RC u_curr_sup/supervisor_code_reg_2_:SI 1.935e-02
*RC u_curr_sup/supervisor_code_reg_1_:SE 4.086e-02
*RC u_curr_sup/supervisor_code_reg_1_:SI 1.935e-02
*RC u_curr_sup/supervisor_code_reg_0_:SE 4.086e-02
*RC u_curr_sup/supervisor_code_reg_0_:SI 1.935e-02
*RC u_curr_sup/current_trip_reg:SE 4.086e-02
*RC u_curr_sup/current_trip_reg:SI 1.935e-02
*RC u_curr_sup/allowed_current_reg_0_:SE 4.086e-02
*RC u_curr_sup/allowed_current_reg_0_:SI 1.935e-02
*RC u_curr_sup/allowed_current_reg_3_:SE 3.792e-02
*RC u_curr_sup/allowed_current_reg_3_:SI 2.595e-02
*RC u_curr_sup/allowed_current_reg_4_:SE 4.086e-02
*RC u_curr_sup/allowed_current_reg_4_:SI 1.935e-02
*RC u_curr_sup/allowed_current_reg_1_:SE 4.086e-02
*RC u_curr_sup/allowed_current_reg_1_:SI 1.935e-02
*RC u_curr_sup/supervisor_code_reg_5_:SE 4.086e-02
*RC u_curr_sup/supervisor_code_reg_5_:SI 1.935e-02
*RC u_curr_sup/allowed_current_reg_5_:SE 3.792e-02
*RC u_curr_sup/allowed_current_reg_5_:SI 2.595e-02
*END

*R_NET u_curr_sup/n32 7.760e-01
*DRIVER u_curr_sup/U13:X
*CELL SAEDRVT14_OR2_MM_1P5
*C2_R1_C1 3.880e-01 1.158e-01 3.880e-01 
*LOADS
*RC u_curr_sup/U28:A1 5.092e-03
*RC u_curr_sup/allowed_current_reg_0_:D 6.761e-03
*RC u_curr_sup/U33:B 6.298e-03
*RC u_curr_sup/U22:A 4.629e-03
*END

*R_NET u_curr_sup/n34 4.036e-01
*DRIVER u_curr_sup/U5:X
*CELL SAEDRVT14_ND2_CDC_1
*C2_R1_C1 2.018e-01 5.002e-02 2.018e-01 
*LOADS
*RC u_curr_sup/allowed_current_reg_3_:D 6.113e-03
*RC u_curr_sup/U34:A 3.981e-03
*END

*R_NET u_curr_sup/n7 1.586e-01
*DRIVER u_curr_sup/U7:X
*CELL SAEDRVT14_INV_0P5
*C2_R1_C1 7.928e-02 2.192e-02 7.928e-02 
*LOADS
*RC u_curr_sup/U8:A 3.476e-03
*END

*R_NET u_curr_sup/n9 1.586e-01
*DRIVER u_curr_sup/U9:X
*CELL SAEDRVT14_INV_0P5
*C2_R1_C1 7.928e-02 2.192e-02 7.928e-02 
*LOADS
*RC u_curr_sup/U10:A 3.476e-03
*END

*R_NET u_curr_sup/n11 1.586e-01
*DRIVER u_curr_sup/U11:X
*CELL SAEDRVT14_INV_0P5
*C2_R1_C1 7.928e-02 2.192e-02 7.928e-02 
*LOADS
*RC u_curr_sup/U12:A 3.476e-03
*END

*R_NET u_curr_sup/n13 3.183e-01
*DRIVER u_curr_sup/U14:X
*CELL SAEDRVT14_INV_0P5
*C2_R1_C1 1.592e-01 5.002e-02 1.592e-01 
*LOADS
*RC u_curr_sup/U16:A 3.981e-03
*RC u_curr_sup/U15:A 3.981e-03
*END

*R_NET u_curr_sup/n14 2.033e+00
*DRIVER u_curr_sup/U15:X
*CELL SAEDRVT14_INV_0P5
*C2_R1_C1 1.016e+00 1.158e-01 1.016e+00 
*LOADS
*RC u_curr_sup/current_warn_reg:RD 1.523e-02
*RC u_curr_sup/supervisor_code_reg_6_:RD 1.523e-02
*RC u_curr_sup/supervisor_code_reg_2_:RD 1.523e-02
*RC u_curr_sup/allowed_current_reg_2_:SD 1.313e-02
*END

*R_NET u_curr_sup/n15 2.105e+00
*DRIVER u_curr_sup/U16:X
*CELL SAEDRVT14_INV_0P5
*C2_R1_C1 1.053e+00 1.158e-01 1.053e+00 
*LOADS
*RC u_curr_sup/supervisor_code_reg_1_:RD 1.523e-02
*RC u_curr_sup/supervisor_code_reg_5_:RD 1.523e-02
*RC u_curr_sup/supervisor_code_reg_0_:RD 1.523e-02
*RC u_curr_sup/allowed_current_reg_0_:RD 1.523e-02
*END

*R_NET u_curr_sup/n16 2.122e+00
*DRIVER u_curr_sup/U17:CKOUT
*CELL SAEDRVT14_CLKSPLT_1
*C2_R1_C1 1.061e+00 1.542e-01 1.061e+00 
*LOADS
*RC u_curr_sup/allowed_current_reg_3_:SD 1.401e-02
*RC u_curr_sup/allowed_current_reg_5_:SD 1.401e-02
*RC u_curr_sup/allowed_current_reg_4_:RD 1.624e-02
*RC u_curr_sup/current_trip_reg:RD 1.624e-02
*RC u_curr_sup/U14:A 4.945e-03
*END

*R_NET u_curr_sup/n17 9.583e-01
*DRIVER u_curr_sup/U21:X
*CELL SAEDRVT14_INV_0P5
*C2_R1_C1 4.791e-01 1.158e-01 4.791e-01 
*LOADS
*RC u_curr_sup/U5:A2 7.048e-03
*RC u_curr_sup/allowed_current_reg_1_:D 6.761e-03
*RC u_curr_sup/U39:A1 7.139e-03
*RC u_curr_sup/U40:A1 7.482e-03
*END

*R_NET u_curr_sup/n18 1.051e+00
*DRIVER u_curr_sup/U22:X
*CELL SAEDRVT14_INV_0P5
*C2_R1_C1 5.257e-01 1.158e-01 5.257e-01 
*LOADS
*RC u_curr_sup/U4:A1 9.334e-03
*RC u_curr_sup/U5:A1 9.334e-03
*RC u_curr_sup/allowed_current_reg_2_:D 7.097e-03
*RC u_curr_sup/U39:B 5.219e-03
*END

*R_NET u_curr_sup/n20 2.322e-01
*DRIVER u_curr_sup/U24:X
*CELL SAEDRVT14_INV_0P5
*C2_R1_C1 1.161e-01 2.192e-02 1.161e-01 
*LOADS
*RC u_curr_sup/supervisor_code_reg_0_:D 5.091e-03
*END

*R_NET u_curr_sup/n21 2.277e-01
*DRIVER u_curr_sup/U27:X
*CELL SAEDRVT14_INV_0P5
*C2_R1_C1 1.139e-01 2.192e-02 1.139e-01 
*LOADS
*RC u_curr_sup/U18:A3 4.993e-03
*END

*R_NET u_curr_sup/n22 2.543e-01
*DRIVER u_curr_sup/U30:X
*CELL SAEDRVT14_OR4_1
*C2_R1_C1 1.272e-01 2.192e-02 1.272e-01 
*LOADS
*RC u_curr_sup/U31:C 5.575e-03
*END

*R_NET u_curr_sup/n23 2.063e-01
*DRIVER u_curr_sup/U31:X
*CELL SAEDRVT14_AO221_0P5
*C2_R1_C1 1.031e-01 2.192e-02 1.031e-01 
*LOADS
*RC u_curr_sup/U13:A2 4.522e-03
*END

*R_NET u_curr_sup/n24 2.705e-01
*DRIVER u_curr_sup/U32:X
*CELL SAEDRVT14_OR4_1
*C2_R1_C1 1.353e-01 2.192e-02 1.353e-01 
*LOADS
*RC u_curr_sup/U33:A2 5.931e-03
*END

*R_NET u_curr_sup/n25 1.586e-01
*DRIVER u_curr_sup/U26:X
*CELL SAEDRVT14_NR4_0P75
*C2_R1_C1 7.928e-02 2.192e-02 7.928e-02 
*LOADS
*RC u_curr_sup/U27:A 3.476e-03
*END

*R_NET u_curr_sup/n26 2.277e-01
*DRIVER u_curr_sup/U36:X
*CELL SAEDRVT14_AO32_U_0P5
*C2_R1_C1 1.139e-01 2.192e-02 1.139e-01 
*LOADS
*RC u_curr_sup/U37:A3 4.993e-03
*END

*R_NET u_curr_sup/n27 2.421e-01
*DRIVER u_curr_sup/U37:X
*CELL SAEDRVT14_OR3_0P5
*C2_R1_C1 1.211e-01 2.192e-02 1.211e-01 
*LOADS
*RC u_curr_sup/U25:A2 5.308e-03
*END

*R_NET u_curr_sup/n28 2.699e-01
*DRIVER u_curr_sup/U25:X
*CELL SAEDRVT14_ND2_CDC_1
*C2_R1_C1 1.350e-01 2.192e-02 1.350e-01 
*LOADS
*RC u_curr_sup/U20:A2 5.918e-03
*END

*R_NET u_curr_sup/n29 2.736e-01
*DRIVER u_curr_sup/U35:X
*CELL SAEDRVT14_NR2_1
*C2_R1_C1 1.368e-01 2.192e-02 1.368e-01 
*LOADS
*RC u_curr_sup/U20:A1 5.999e-03
*END

*R_NET u_curr_sup/n30 5.319e-01
*DRIVER u_curr_sup/U18:X
*CELL SAEDRVT14_OR3_0P5
*C2_R1_C1 2.660e-01 5.002e-02 2.660e-01 
*LOADS
*RC u_curr_sup/U35:A2 6.294e-03
*RC u_curr_sup/U38:A4 7.009e-03
*END

*R_NET u_curr_sup/n31 2.815e-01
*DRIVER u_curr_sup/U19:X
*CELL SAEDRVT14_AN4_0P75
*C2_R1_C1 1.407e-01 2.192e-02 1.407e-01 
*LOADS
*RC u_curr_sup/U38:A3 6.171e-03
*END

*R_NET u_curr_sup/n33 2.468e-01
*DRIVER u_curr_sup/U39:X
*CELL SAEDRVT14_OAI21_0P5
*C2_R1_C1 1.234e-01 2.192e-02 1.234e-01 
*LOADS
*RC u_curr_sup/U23:A2 5.411e-03
*END

*R_NET u_curr_sup/n35 6.548e-01
*DRIVER u_curr_sup/U29:X
*CELL SAEDLVT14_NR2_MM_0P5
*C2_R1_C1 3.274e-01 8.117e-02 3.274e-01 
*LOADS
*RC u_curr_sup/U4:A2 6.579e-03
*RC u_curr_sup/U23:A1 4.751e-03
*RC u_curr_sup/U28:A2 6.705e-03
*END

*R_NET DP_OP_27J1_123_5989/n114 3.689e-01
*DRIVER DP_OP_27J1_123_5989/U40:CO
*CELL SAEDRVT14_ADDF_V2_0P5
*C2_R1_C1 1.845e-01 2.192e-02 1.845e-01 
*LOADS
*RC DP_OP_27J1_123_5989/U52:CI 8.089e-03
*END

*R_NET DP_OP_27J1_123_5989/n115 5.313e-01
*DRIVER DP_OP_27J1_123_5989/U60:S
*CELL SAEDRVT14_ADDF_V1_0P5
*C2_R1_C1 2.657e-01 2.192e-02 2.657e-01 
*LOADS
*RC DP_OP_27J1_123_5989/U52:B 1.165e-02
*END

*R_NET DP_OP_27J1_123_5989/n116 2.716e-01
*DRIVER DP_OP_27J1_123_5989/U41:CO
*CELL SAEDRVT14_ADDF_V2_0P5
*C2_R1_C1 1.358e-01 2.192e-02 1.358e-01 
*LOADS
*RC DP_OP_27J1_123_5989/U52:A 5.955e-03
*END

*R_NET DP_OP_27J1_123_5989/n117 3.689e-01
*DRIVER DP_OP_27J1_123_5989/U42:CO
*CELL SAEDRVT14_ADDF_V2_0P5
*C2_R1_C1 1.845e-01 2.192e-02 1.845e-01 
*LOADS
*RC DP_OP_27J1_123_5989/U41:CI 8.089e-03
*END

*R_NET DP_OP_27J1_123_5989/n118 5.313e-01
*DRIVER DP_OP_27J1_123_5989/U40:S
*CELL SAEDRVT14_ADDF_V2_0P5
*C2_R1_C1 2.657e-01 2.192e-02 2.657e-01 
*LOADS
*RC DP_OP_27J1_123_5989/U41:B 1.165e-02
*END

*R_NET DP_OP_27J1_123_5989/n119 2.716e-01
*DRIVER DP_OP_27J1_123_5989/U61:CO
*CELL SAEDRVT14_ADDF_V1_0P5
*C2_R1_C1 1.358e-01 2.192e-02 1.358e-01 
*LOADS
*RC DP_OP_27J1_123_5989/U41:A 5.955e-03
*END

*R_NET DP_OP_27J1_123_5989/n120 4.427e-01
*DRIVER DP_OP_27J1_123_5989/U59:CO
*CELL SAEDRVT14_ADDF_V1_0P5
*C2_R1_C1 2.214e-01 2.192e-02 2.214e-01 
*LOADS
*RC DP_OP_27J1_123_5989/U61:CI 9.706e-03
*END

*R_NET DP_OP_27J1_123_5989/n121 8.534e-01
*DRIVER DP_OP_27J1_123_5989/U42:S
*CELL SAEDRVT14_ADDF_V2_0P5
*C2_R1_C1 4.267e-01 2.192e-02 4.267e-01 
*LOADS
*RC DP_OP_27J1_123_5989/U61:B 1.871e-02
*END

*R_NET DP_OP_27J1_123_5989/n122 6.727e-01
*DRIVER DP_OP_27J1_123_5989/U45:CO
*CELL SAEDRVT14_ADDF_V2_0P5
*C2_R1_C1 3.363e-01 2.192e-02 3.363e-01 
*LOADS
*RC DP_OP_27J1_123_5989/U61:A 1.475e-02
*END

*R_NET DP_OP_27J1_123_5989/n123 3.689e-01
*DRIVER DP_OP_27J1_123_5989/U58:CO
*CELL SAEDRVT14_ADDF_V1_0P5
*C2_R1_C1 1.845e-01 2.192e-02 1.845e-01 
*LOADS
*RC DP_OP_27J1_123_5989/U45:CI 8.089e-03
*END

*R_NET DP_OP_27J1_123_5989/n124 5.313e-01
*DRIVER DP_OP_27J1_123_5989/U59:S
*CELL SAEDRVT14_ADDF_V1_0P5
*C2_R1_C1 2.657e-01 2.192e-02 2.657e-01 
*LOADS
*RC DP_OP_27J1_123_5989/U45:B 1.165e-02
*END

*R_NET DP_OP_27J1_123_5989/n125 2.716e-01
*DRIVER DP_OP_27J1_123_5989/U46:CO
*CELL SAEDRVT14_ADDF_V2_0P5
*C2_R1_C1 1.358e-01 2.192e-02 1.358e-01 
*LOADS
*RC DP_OP_27J1_123_5989/U45:A 5.955e-03
*END

*R_NET DP_OP_27J1_123_5989/n126 3.689e-01
*DRIVER DP_OP_27J1_123_5989/U43:CO
*CELL SAEDRVT14_ADDF_V2_0P5
*C2_R1_C1 1.845e-01 2.192e-02 1.845e-01 
*LOADS
*RC DP_OP_27J1_123_5989/U46:CI 8.089e-03
*END

*R_NET DP_OP_27J1_123_5989/n127 5.313e-01
*DRIVER DP_OP_27J1_123_5989/U58:S
*CELL SAEDRVT14_ADDF_V1_0P5
*C2_R1_C1 2.657e-01 2.192e-02 2.657e-01 
*LOADS
*RC DP_OP_27J1_123_5989/U46:B 1.165e-02
*END

*R_NET DP_OP_27J1_123_5989/n128 2.716e-01
*DRIVER DP_OP_27J1_123_5989/U62:CO
*CELL SAEDRVT14_ADDF_V1_0P5
*C2_R1_C1 1.358e-01 2.192e-02 1.358e-01 
*LOADS
*RC DP_OP_27J1_123_5989/U46:A 5.955e-03
*END

*R_NET DP_OP_27J1_123_5989/n129 4.427e-01
*DRIVER DP_OP_27J1_123_5989/U57:CO
*CELL SAEDRVT14_ADDF_V1_0P5
*C2_R1_C1 2.214e-01 2.192e-02 2.214e-01 
*LOADS
*RC DP_OP_27J1_123_5989/U62:CI 9.706e-03
*END

*R_NET DP_OP_27J1_123_5989/n130 8.534e-01
*DRIVER DP_OP_27J1_123_5989/U43:S
*CELL SAEDRVT14_ADDF_V2_0P5
*C2_R1_C1 4.267e-01 2.192e-02 4.267e-01 
*LOADS
*RC DP_OP_27J1_123_5989/U62:B 1.871e-02
*END

*R_NET DP_OP_27J1_123_5989/n131 6.727e-01
*DRIVER DP_OP_27J1_123_5989/U47:CO
*CELL SAEDRVT14_ADDF_V2_0P5
*C2_R1_C1 3.363e-01 2.192e-02 3.363e-01 
*LOADS
*RC DP_OP_27J1_123_5989/U62:A 1.475e-02
*END

*R_NET DP_OP_27J1_123_5989/n132 3.689e-01
*DRIVER DP_OP_27J1_123_5989/U56:CO
*CELL SAEDRVT14_ADDF_V1_0P5
*C2_R1_C1 1.845e-01 2.192e-02 1.845e-01 
*LOADS
*RC DP_OP_27J1_123_5989/U47:CI 8.089e-03
*END

*R_NET DP_OP_27J1_123_5989/n133 5.313e-01
*DRIVER DP_OP_27J1_123_5989/U57:S
*CELL SAEDRVT14_ADDF_V1_0P5
*C2_R1_C1 2.657e-01 2.192e-02 2.657e-01 
*LOADS
*RC DP_OP_27J1_123_5989/U47:B 1.165e-02
*END

*R_NET DP_OP_27J1_123_5989/n134 2.716e-01
*DRIVER DP_OP_27J1_123_5989/U48:CO
*CELL SAEDRVT14_ADDF_V2_0P5
*C2_R1_C1 1.358e-01 2.192e-02 1.358e-01 
*LOADS
*RC DP_OP_27J1_123_5989/U47:A 5.955e-03
*END

*R_NET DP_OP_27J1_123_5989/n135 3.689e-01
*DRIVER DP_OP_27J1_123_5989/U44:CO
*CELL SAEDRVT14_ADDF_V2_0P5
*C2_R1_C1 1.845e-01 2.192e-02 1.845e-01 
*LOADS
*RC DP_OP_27J1_123_5989/U48:CI 8.089e-03
*END

*R_NET DP_OP_27J1_123_5989/n136 5.313e-01
*DRIVER DP_OP_27J1_123_5989/U56:S
*CELL SAEDRVT14_ADDF_V1_0P5
*C2_R1_C1 2.657e-01 2.192e-02 2.657e-01 
*LOADS
*RC DP_OP_27J1_123_5989/U48:B 1.165e-02
*END

*R_NET DP_OP_27J1_123_5989/n137 2.716e-01
*DRIVER DP_OP_27J1_123_5989/U63:CO
*CELL SAEDRVT14_ADDF_V1_0P5
*C2_R1_C1 1.358e-01 2.192e-02 1.358e-01 
*LOADS
*RC DP_OP_27J1_123_5989/U48:A 5.955e-03
*END

*R_NET DP_OP_27J1_123_5989/n138 4.427e-01
*DRIVER DP_OP_27J1_123_5989/U55:CO
*CELL SAEDRVT14_ADDF_V1_0P5
*C2_R1_C1 2.214e-01 2.192e-02 2.214e-01 
*LOADS
*RC DP_OP_27J1_123_5989/U63:CI 9.706e-03
*END

*R_NET DP_OP_27J1_123_5989/n139 8.534e-01
*DRIVER DP_OP_27J1_123_5989/U44:S
*CELL SAEDRVT14_ADDF_V2_0P5
*C2_R1_C1 4.267e-01 2.192e-02 4.267e-01 
*LOADS
*RC DP_OP_27J1_123_5989/U63:B 1.871e-02
*END

*R_NET DP_OP_27J1_123_5989/n140 6.727e-01
*DRIVER DP_OP_27J1_123_5989/U49:CO
*CELL SAEDRVT14_ADDF_V2_0P5
*C2_R1_C1 3.363e-01 2.192e-02 3.363e-01 
*LOADS
*RC DP_OP_27J1_123_5989/U63:A 1.475e-02
*END

*R_NET DP_OP_27J1_123_5989/n141 3.689e-01
*DRIVER DP_OP_27J1_123_5989/U54:CO
*CELL SAEDRVT14_ADDF_V1_0P5
*C2_R1_C1 1.845e-01 2.192e-02 1.845e-01 
*LOADS
*RC DP_OP_27J1_123_5989/U49:CI 8.089e-03
*END

*R_NET DP_OP_27J1_123_5989/n142 5.313e-01
*DRIVER DP_OP_27J1_123_5989/U55:S
*CELL SAEDRVT14_ADDF_V1_0P5
*C2_R1_C1 2.657e-01 2.192e-02 2.657e-01 
*LOADS
*RC DP_OP_27J1_123_5989/U49:B 1.165e-02
*END

*R_NET DP_OP_27J1_123_5989/n143 2.716e-01
*DRIVER DP_OP_27J1_123_5989/U50:CO
*CELL SAEDRVT14_ADDF_V2_0P5
*C2_R1_C1 1.358e-01 2.192e-02 1.358e-01 
*LOADS
*RC DP_OP_27J1_123_5989/U49:A 5.955e-03
*END

*R_NET DP_OP_27J1_123_5989/n144 3.689e-01
*DRIVER DP_OP_27J1_123_5989/U53:CO
*CELL SAEDRVT14_ADDH_0P5
*C2_R1_C1 1.845e-01 2.192e-02 1.845e-01 
*LOADS
*RC DP_OP_27J1_123_5989/U50:CI 8.089e-03
*END

*R_NET DP_OP_27J1_123_5989/n145 5.313e-01
*DRIVER DP_OP_27J1_123_5989/U54:S
*CELL SAEDRVT14_ADDF_V1_0P5
*C2_R1_C1 2.657e-01 2.192e-02 2.657e-01 
*LOADS
*RC DP_OP_27J1_123_5989/U50:B 1.165e-02
*END

*R_NET DP_OP_27J1_123_5989/n146 2.716e-01
*DRIVER DP_OP_27J1_123_5989/U36:CO
*CELL SAEDRVT14_ADDF_V2_0P5
*C2_R1_C1 1.358e-01 2.192e-02 1.358e-01 
*LOADS
*RC DP_OP_27J1_123_5989/U50:A 5.955e-03
*END

*R_NET DP_OP_27J1_123_5989/n147 5.313e-01
*DRIVER DP_OP_27J1_123_5989/U53:S
*CELL SAEDRVT14_ADDH_0P5
*C2_R1_C1 2.657e-01 2.192e-02 2.657e-01 
*LOADS
*RC DP_OP_27J1_123_5989/U36:B 1.165e-02
*END

*R_NET DP_OP_27J1_123_5989/n148 2.716e-01
*DRIVER DP_OP_27J1_123_5989/U37:CO
*CELL SAEDRVT14_ADDF_V2_0P5
*C2_R1_C1 1.358e-01 2.192e-02 1.358e-01 
*LOADS
*RC DP_OP_27J1_123_5989/U36:A 5.955e-03
*END

*R_NET DP_OP_27J1_123_5989/n149 3.689e-01
*DRIVER DP_OP_27J1_123_5989/U60:CO
*CELL SAEDRVT14_ADDF_V1_0P5
*C2_R1_C1 1.845e-01 2.192e-02 1.845e-01 
*LOADS
*RC DP_OP_27J1_123_5989/U51:CI 8.089e-03
*END

*R_NET DP_OP_27J1_123_5989/n150 5.313e-01
*DRIVER DP_OP_27J1_123_5989/U64:S
*CELL SAEDRVT14_ADDF_V1_0P5
*C2_R1_C1 2.657e-01 2.192e-02 2.657e-01 
*LOADS
*RC DP_OP_27J1_123_5989/U51:B 1.165e-02
*END

*R_NET DP_OP_27J1_123_5989/n151 2.716e-01
*DRIVER DP_OP_27J1_123_5989/U52:CO
*CELL SAEDRVT14_ADDF_V2_0P5
*C2_R1_C1 1.358e-01 2.192e-02 1.358e-01 
*LOADS
*RC DP_OP_27J1_123_5989/U51:A 5.955e-03
*END

*R_NET DP_OP_27J1_123_5989/n152 4.427e-01
*DRIVER DP_OP_27J1_123_5989/U64:CO
*CELL SAEDRVT14_ADDF_V1_0P5
*C2_R1_C1 2.214e-01 2.192e-02 2.214e-01 
*LOADS
*RC DP_OP_27J1_123_5989/U65:CI 9.706e-03
*END

*R_NET DP_OP_27J1_123_5989/n153 8.534e-01
*DRIVER DP_OP_27J1_123_5989/U39:S
*CELL SAEDRVT14_ADDF_V2_0P5
*C2_R1_C1 4.267e-01 2.192e-02 4.267e-01 
*LOADS
*RC DP_OP_27J1_123_5989/U65:B 1.871e-02
*END

*R_NET DP_OP_27J1_123_5989/n154 6.727e-01
*DRIVER DP_OP_27J1_123_5989/U51:CO
*CELL SAEDRVT14_ADDF_V2_0P5
*C2_R1_C1 3.363e-01 2.192e-02 3.363e-01 
*LOADS
*RC DP_OP_27J1_123_5989/U65:A 1.475e-02
*END

*R_NET DP_OP_27J1_123_5989/n155 2.006e-01
*DRIVER DP_OP_27J1_123_5989/U39:CO
*CELL SAEDRVT14_ADDF_V2_0P5
*C2_R1_C1 1.003e-01 2.192e-02 1.003e-01 
*LOADS
*RC DP_OP_27J1_123_5989/U38:A2 4.398e-03
*END

*R_NET DP_OP_27J1_123_5989/n156 3.262e-01
*DRIVER DP_OP_27J1_123_5989/U66:X
*CELL SAEDRVT14_EO3_0P5
*C2_R1_C1 1.631e-01 2.192e-02 1.631e-01 
*LOADS
*RC DP_OP_27J1_123_5989/U38:A1 7.153e-03
*END

*R_NET DP_OP_27J1_123_5989/n157 2.006e-01
*DRIVER DP_OP_27J1_123_5989/U38:X
*CELL SAEDRVT14_EO2_1
*C2_R1_C1 1.003e-01 2.192e-02 1.003e-01 
*LOADS
*RC DP_OP_27J1_123_5989/U35:A2 4.398e-03
*END

*R_NET DP_OP_27J1_123_5989/n158 3.262e-01
*DRIVER DP_OP_27J1_123_5989/U65:CO
*CELL SAEDRVT14_ADDF_V1_0P5
*C2_R1_C1 1.631e-01 2.192e-02 1.631e-01 
*LOADS
*RC DP_OP_27J1_123_5989/U35:A1 7.153e-03
*END

*R_NET DP_OP_26J1_122_5989/n114 3.689e-01
*DRIVER DP_OP_26J1_122_5989/U40:CO
*CELL SAEDRVT14_ADDF_V2_0P5
*C2_R1_C1 1.845e-01 2.192e-02 1.845e-01 
*LOADS
*RC DP_OP_26J1_122_5989/U52:CI 8.089e-03
*END

*R_NET DP_OP_26J1_122_5989/n115 5.313e-01
*DRIVER DP_OP_26J1_122_5989/U60:S
*CELL SAEDRVT14_ADDF_V1_0P5
*C2_R1_C1 2.657e-01 2.192e-02 2.657e-01 
*LOADS
*RC DP_OP_26J1_122_5989/U52:B 1.165e-02
*END

*R_NET DP_OP_26J1_122_5989/n116 2.716e-01
*DRIVER DP_OP_26J1_122_5989/U41:CO
*CELL SAEDRVT14_ADDF_V2_0P5
*C2_R1_C1 1.358e-01 2.192e-02 1.358e-01 
*LOADS
*RC DP_OP_26J1_122_5989/U52:A 5.955e-03
*END

*R_NET DP_OP_26J1_122_5989/n117 3.689e-01
*DRIVER DP_OP_26J1_122_5989/U42:CO
*CELL SAEDRVT14_ADDF_V2_0P5
*C2_R1_C1 1.845e-01 2.192e-02 1.845e-01 
*LOADS
*RC DP_OP_26J1_122_5989/U41:CI 8.089e-03
*END

*R_NET DP_OP_26J1_122_5989/n118 5.313e-01
*DRIVER DP_OP_26J1_122_5989/U40:S
*CELL SAEDRVT14_ADDF_V2_0P5
*C2_R1_C1 2.657e-01 2.192e-02 2.657e-01 
*LOADS
*RC DP_OP_26J1_122_5989/U41:B 1.165e-02
*END

*R_NET DP_OP_26J1_122_5989/n119 2.716e-01
*DRIVER DP_OP_26J1_122_5989/U61:CO
*CELL SAEDRVT14_ADDF_V1_0P5
*C2_R1_C1 1.358e-01 2.192e-02 1.358e-01 
*LOADS
*RC DP_OP_26J1_122_5989/U41:A 5.955e-03
*END

*R_NET DP_OP_26J1_122_5989/n120 4.427e-01
*DRIVER DP_OP_26J1_122_5989/U59:CO
*CELL SAEDRVT14_ADDF_V1_0P5
*C2_R1_C1 2.214e-01 2.192e-02 2.214e-01 
*LOADS
*RC DP_OP_26J1_122_5989/U61:CI 9.706e-03
*END

*R_NET DP_OP_26J1_122_5989/n121 8.534e-01
*DRIVER DP_OP_26J1_122_5989/U42:S
*CELL SAEDRVT14_ADDF_V2_0P5
*C2_R1_C1 4.267e-01 2.192e-02 4.267e-01 
*LOADS
*RC DP_OP_26J1_122_5989/U61:B 1.871e-02
*END

*R_NET DP_OP_26J1_122_5989/n122 6.727e-01
*DRIVER DP_OP_26J1_122_5989/U45:CO
*CELL SAEDRVT14_ADDF_V2_0P5
*C2_R1_C1 3.363e-01 2.192e-02 3.363e-01 
*LOADS
*RC DP_OP_26J1_122_5989/U61:A 1.475e-02
*END

*R_NET DP_OP_26J1_122_5989/n123 3.689e-01
*DRIVER DP_OP_26J1_122_5989/U58:CO
*CELL SAEDRVT14_ADDF_V1_0P5
*C2_R1_C1 1.845e-01 2.192e-02 1.845e-01 
*LOADS
*RC DP_OP_26J1_122_5989/U45:CI 8.089e-03
*END

*R_NET DP_OP_26J1_122_5989/n124 5.313e-01
*DRIVER DP_OP_26J1_122_5989/U59:S
*CELL SAEDRVT14_ADDF_V1_0P5
*C2_R1_C1 2.657e-01 2.192e-02 2.657e-01 
*LOADS
*RC DP_OP_26J1_122_5989/U45:B 1.165e-02
*END

*R_NET DP_OP_26J1_122_5989/n125 2.716e-01
*DRIVER DP_OP_26J1_122_5989/U46:CO
*CELL SAEDRVT14_ADDF_V2_0P5
*C2_R1_C1 1.358e-01 2.192e-02 1.358e-01 
*LOADS
*RC DP_OP_26J1_122_5989/U45:A 5.955e-03
*END

*R_NET DP_OP_26J1_122_5989/n126 3.689e-01
*DRIVER DP_OP_26J1_122_5989/U43:CO
*CELL SAEDRVT14_ADDF_V2_0P5
*C2_R1_C1 1.845e-01 2.192e-02 1.845e-01 
*LOADS
*RC DP_OP_26J1_122_5989/U46:CI 8.089e-03
*END

*R_NET DP_OP_26J1_122_5989/n127 5.313e-01
*DRIVER DP_OP_26J1_122_5989/U58:S
*CELL SAEDRVT14_ADDF_V1_0P5
*C2_R1_C1 2.657e-01 2.192e-02 2.657e-01 
*LOADS
*RC DP_OP_26J1_122_5989/U46:B 1.165e-02
*END

*R_NET DP_OP_26J1_122_5989/n128 2.716e-01
*DRIVER DP_OP_26J1_122_5989/U62:CO
*CELL SAEDRVT14_ADDF_V1_0P5
*C2_R1_C1 1.358e-01 2.192e-02 1.358e-01 
*LOADS
*RC DP_OP_26J1_122_5989/U46:A 5.955e-03
*END

*R_NET DP_OP_26J1_122_5989/n129 4.427e-01
*DRIVER DP_OP_26J1_122_5989/U57:CO
*CELL SAEDRVT14_ADDF_V1_0P5
*C2_R1_C1 2.214e-01 2.192e-02 2.214e-01 
*LOADS
*RC DP_OP_26J1_122_5989/U62:CI 9.706e-03
*END

*R_NET DP_OP_26J1_122_5989/n130 8.534e-01
*DRIVER DP_OP_26J1_122_5989/U43:S
*CELL SAEDRVT14_ADDF_V2_0P5
*C2_R1_C1 4.267e-01 2.192e-02 4.267e-01 
*LOADS
*RC DP_OP_26J1_122_5989/U62:B 1.871e-02
*END

*R_NET DP_OP_26J1_122_5989/n131 6.727e-01
*DRIVER DP_OP_26J1_122_5989/U47:CO
*CELL SAEDRVT14_ADDF_V2_0P5
*C2_R1_C1 3.363e-01 2.192e-02 3.363e-01 
*LOADS
*RC DP_OP_26J1_122_5989/U62:A 1.475e-02
*END

*R_NET DP_OP_26J1_122_5989/n132 3.689e-01
*DRIVER DP_OP_26J1_122_5989/U56:CO
*CELL SAEDRVT14_ADDF_V1_0P5
*C2_R1_C1 1.845e-01 2.192e-02 1.845e-01 
*LOADS
*RC DP_OP_26J1_122_5989/U47:CI 8.089e-03
*END

*R_NET DP_OP_26J1_122_5989/n133 5.313e-01
*DRIVER DP_OP_26J1_122_5989/U57:S
*CELL SAEDRVT14_ADDF_V1_0P5
*C2_R1_C1 2.657e-01 2.192e-02 2.657e-01 
*LOADS
*RC DP_OP_26J1_122_5989/U47:B 1.165e-02
*END

*R_NET DP_OP_26J1_122_5989/n134 2.716e-01
*DRIVER DP_OP_26J1_122_5989/U48:CO
*CELL SAEDRVT14_ADDF_V2_0P5
*C2_R1_C1 1.358e-01 2.192e-02 1.358e-01 
*LOADS
*RC DP_OP_26J1_122_5989/U47:A 5.955e-03
*END

*R_NET DP_OP_26J1_122_5989/n135 3.689e-01
*DRIVER DP_OP_26J1_122_5989/U44:CO
*CELL SAEDRVT14_ADDF_V2_0P5
*C2_R1_C1 1.845e-01 2.192e-02 1.845e-01 
*LOADS
*RC DP_OP_26J1_122_5989/U48:CI 8.089e-03
*END

*R_NET DP_OP_26J1_122_5989/n136 5.313e-01
*DRIVER DP_OP_26J1_122_5989/U56:S
*CELL SAEDRVT14_ADDF_V1_0P5
*C2_R1_C1 2.657e-01 2.192e-02 2.657e-01 
*LOADS
*RC DP_OP_26J1_122_5989/U48:B 1.165e-02
*END

*R_NET DP_OP_26J1_122_5989/n137 2.716e-01
*DRIVER DP_OP_26J1_122_5989/U63:CO
*CELL SAEDRVT14_ADDF_V1_0P5
*C2_R1_C1 1.358e-01 2.192e-02 1.358e-01 
*LOADS
*RC DP_OP_26J1_122_5989/U48:A 5.955e-03
*END

*R_NET DP_OP_26J1_122_5989/n138 4.427e-01
*DRIVER DP_OP_26J1_122_5989/U55:CO
*CELL SAEDRVT14_ADDF_V1_0P5
*C2_R1_C1 2.214e-01 2.192e-02 2.214e-01 
*LOADS
*RC DP_OP_26J1_122_5989/U63:CI 9.706e-03
*END

*R_NET DP_OP_26J1_122_5989/n139 8.534e-01
*DRIVER DP_OP_26J1_122_5989/U44:S
*CELL SAEDRVT14_ADDF_V2_0P5
*C2_R1_C1 4.267e-01 2.192e-02 4.267e-01 
*LOADS
*RC DP_OP_26J1_122_5989/U63:B 1.871e-02
*END

*R_NET DP_OP_26J1_122_5989/n140 6.727e-01
*DRIVER DP_OP_26J1_122_5989/U49:CO
*CELL SAEDRVT14_ADDF_V2_0P5
*C2_R1_C1 3.363e-01 2.192e-02 3.363e-01 
*LOADS
*RC DP_OP_26J1_122_5989/U63:A 1.475e-02
*END

*R_NET DP_OP_26J1_122_5989/n141 3.689e-01
*DRIVER DP_OP_26J1_122_5989/U54:CO
*CELL SAEDRVT14_ADDF_V1_0P5
*C2_R1_C1 1.845e-01 2.192e-02 1.845e-01 
*LOADS
*RC DP_OP_26J1_122_5989/U49:CI 8.089e-03
*END

*R_NET DP_OP_26J1_122_5989/n142 5.313e-01
*DRIVER DP_OP_26J1_122_5989/U55:S
*CELL SAEDRVT14_ADDF_V1_0P5
*C2_R1_C1 2.657e-01 2.192e-02 2.657e-01 
*LOADS
*RC DP_OP_26J1_122_5989/U49:B 1.165e-02
*END

*R_NET DP_OP_26J1_122_5989/n143 2.716e-01
*DRIVER DP_OP_26J1_122_5989/U50:CO
*CELL SAEDRVT14_ADDF_V2_0P5
*C2_R1_C1 1.358e-01 2.192e-02 1.358e-01 
*LOADS
*RC DP_OP_26J1_122_5989/U49:A 5.955e-03
*END

*R_NET DP_OP_26J1_122_5989/n144 3.689e-01
*DRIVER DP_OP_26J1_122_5989/U53:CO
*CELL SAEDRVT14_ADDH_0P5
*C2_R1_C1 1.845e-01 2.192e-02 1.845e-01 
*LOADS
*RC DP_OP_26J1_122_5989/U50:CI 8.089e-03
*END

*R_NET DP_OP_26J1_122_5989/n145 5.313e-01
*DRIVER DP_OP_26J1_122_5989/U54:S
*CELL SAEDRVT14_ADDF_V1_0P5
*C2_R1_C1 2.657e-01 2.192e-02 2.657e-01 
*LOADS
*RC DP_OP_26J1_122_5989/U50:B 1.165e-02
*END

*R_NET DP_OP_26J1_122_5989/n146 2.716e-01
*DRIVER DP_OP_26J1_122_5989/U36:CO
*CELL SAEDRVT14_ADDF_V2_0P5
*C2_R1_C1 1.358e-01 2.192e-02 1.358e-01 
*LOADS
*RC DP_OP_26J1_122_5989/U50:A 5.955e-03
*END

*R_NET DP_OP_26J1_122_5989/n147 5.313e-01
*DRIVER DP_OP_26J1_122_5989/U53:S
*CELL SAEDRVT14_ADDH_0P5
*C2_R1_C1 2.657e-01 2.192e-02 2.657e-01 
*LOADS
*RC DP_OP_26J1_122_5989/U36:B 1.165e-02
*END

*R_NET DP_OP_26J1_122_5989/n148 2.716e-01
*DRIVER DP_OP_26J1_122_5989/U37:CO
*CELL SAEDRVT14_ADDF_V2_0P5
*C2_R1_C1 1.358e-01 2.192e-02 1.358e-01 
*LOADS
*RC DP_OP_26J1_122_5989/U36:A 5.955e-03
*END

*R_NET DP_OP_26J1_122_5989/n149 3.689e-01
*DRIVER DP_OP_26J1_122_5989/U60:CO
*CELL SAEDRVT14_ADDF_V1_0P5
*C2_R1_C1 1.845e-01 2.192e-02 1.845e-01 
*LOADS
*RC DP_OP_26J1_122_5989/U51:CI 8.089e-03
*END

*R_NET DP_OP_26J1_122_5989/n150 5.313e-01
*DRIVER DP_OP_26J1_122_5989/U64:S
*CELL SAEDRVT14_ADDF_V1_0P5
*C2_R1_C1 2.657e-01 2.192e-02 2.657e-01 
*LOADS
*RC DP_OP_26J1_122_5989/U51:B 1.165e-02
*END

*R_NET DP_OP_26J1_122_5989/n151 2.716e-01
*DRIVER DP_OP_26J1_122_5989/U52:CO
*CELL SAEDRVT14_ADDF_V2_0P5
*C2_R1_C1 1.358e-01 2.192e-02 1.358e-01 
*LOADS
*RC DP_OP_26J1_122_5989/U51:A 5.955e-03
*END

*R_NET DP_OP_26J1_122_5989/n152 4.427e-01
*DRIVER DP_OP_26J1_122_5989/U64:CO
*CELL SAEDRVT14_ADDF_V1_0P5
*C2_R1_C1 2.214e-01 2.192e-02 2.214e-01 
*LOADS
*RC DP_OP_26J1_122_5989/U65:CI 9.706e-03
*END

*R_NET DP_OP_26J1_122_5989/n153 8.534e-01
*DRIVER DP_OP_26J1_122_5989/U39:S
*CELL SAEDRVT14_ADDF_V2_0P5
*C2_R1_C1 4.267e-01 2.192e-02 4.267e-01 
*LOADS
*RC DP_OP_26J1_122_5989/U65:B 1.871e-02
*END

*R_NET DP_OP_26J1_122_5989/n154 6.727e-01
*DRIVER DP_OP_26J1_122_5989/U51:CO
*CELL SAEDRVT14_ADDF_V2_0P5
*C2_R1_C1 3.363e-01 2.192e-02 3.363e-01 
*LOADS
*RC DP_OP_26J1_122_5989/U65:A 1.475e-02
*END

*R_NET DP_OP_26J1_122_5989/n155 2.006e-01
*DRIVER DP_OP_26J1_122_5989/U39:CO
*CELL SAEDRVT14_ADDF_V2_0P5
*C2_R1_C1 1.003e-01 2.192e-02 1.003e-01 
*LOADS
*RC DP_OP_26J1_122_5989/U38:A2 4.398e-03
*END

*R_NET DP_OP_26J1_122_5989/n156 3.262e-01
*DRIVER DP_OP_26J1_122_5989/U66:X
*CELL SAEDRVT14_EO3_0P5
*C2_R1_C1 1.631e-01 2.192e-02 1.631e-01 
*LOADS
*RC DP_OP_26J1_122_5989/U38:A1 7.153e-03
*END

*R_NET DP_OP_26J1_122_5989/n157 2.006e-01
*DRIVER DP_OP_26J1_122_5989/U38:X
*CELL SAEDRVT14_EO2_1
*C2_R1_C1 1.003e-01 2.192e-02 1.003e-01 
*LOADS
*RC DP_OP_26J1_122_5989/U35:A2 4.398e-03
*END

*R_NET DP_OP_26J1_122_5989/n158 3.262e-01
*DRIVER DP_OP_26J1_122_5989/U65:CO
*CELL SAEDRVT14_ADDF_V1_0P5
*C2_R1_C1 1.631e-01 2.192e-02 1.631e-01 
*LOADS
*RC DP_OP_26J1_122_5989/U35:A1 7.153e-03
*END

*R_NET gte_x_5/n90 6.247e-01
*DRIVER gte_x_5/U78:X
*CELL SAEDRVT14_OR2_0P5
*C2_R1_C1 3.123e-01 5.002e-02 3.123e-01 
*LOADS
*RC gte_x_5/U105:A1 8.046e-03
*RC gte_x_5/U109:A2 7.576e-03
*END

*R_NET gte_x_5/n91 2.421e-01
*DRIVER gte_x_5/U82:X
*CELL SAEDRVT14_INV_0P5
*C2_R1_C1 1.211e-01 2.192e-02 1.211e-01 
*LOADS
*RC gte_x_5/U60:A2 5.308e-03
*END

*R_NET gte_x_5/n92 4.590e-01
*DRIVER gte_x_5/U81:X
*CELL SAEDRVT14_INV_0P5
*C2_R1_C1 2.295e-01 5.002e-02 2.295e-01 
*LOADS
*RC gte_x_5/U67:A2 5.407e-03
*RC gte_x_5/U66:A2 6.071e-03
*END

*R_NET gte_x_5/n93 1.789e-01
*DRIVER gte_x_5/U66:X
*CELL SAEDRVT14_ND2_CDC_1
*C2_R1_C1 8.947e-02 2.192e-02 8.947e-02 
*LOADS
*RC gte_x_5/U83:B 3.923e-03
*END

*R_NET gte_x_5/n94 3.522e-01
*DRIVER gte_x_5/U60:X
*CELL SAEDRVT14_ND2_CDC_1
*C2_R1_C1 1.761e-01 2.192e-02 1.761e-01 
*LOADS
*RC gte_x_5/U83:A2 7.722e-03
*END

*R_NET gte_x_5/n95 2.453e-01
*DRIVER gte_x_5/U67:X
*CELL SAEDLVT14_NR2_MM_0P5
*C2_R1_C1 1.226e-01 2.192e-02 1.226e-01 
*LOADS
*RC gte_x_5/U83:A1 5.377e-03
*END

*R_NET gte_x_5/n96 2.156e-01
*DRIVER gte_x_5/U65:X
*CELL SAEDRVT14_NR2_1
*C2_R1_C1 1.078e-01 2.192e-02 1.078e-01 
*LOADS
*RC gte_x_5/U72:A2 4.727e-03
*END

*R_NET gte_x_5/n97 4.177e-01
*DRIVER gte_x_5/U84:X
*CELL SAEDRVT14_INV_0P5
*C2_R1_C1 2.088e-01 5.002e-02 2.088e-01 
*LOADS
*RC gte_x_5/U65:A1 4.814e-03
*RC gte_x_5/U64:A2 6.071e-03
*END

*R_NET gte_x_5/n98 4.177e-01
*DRIVER gte_x_5/U85:X
*CELL SAEDRVT14_INV_0P5
*C2_R1_C1 2.088e-01 5.002e-02 2.088e-01 
*LOADS
*RC gte_x_5/U73:A1 4.814e-03
*RC gte_x_5/U86:A2 6.071e-03
*END

*R_NET gte_x_5/n99 1.789e-01
*DRIVER gte_x_5/U86:X
*CELL SAEDRVT14_ND2_CDC_1
*C2_R1_C1 8.947e-02 2.192e-02 8.947e-02 
*LOADS
*RC gte_x_5/U87:B 3.923e-03
*END

*R_NET gte_x_5/n100 3.522e-01
*DRIVER gte_x_5/U64:X
*CELL SAEDRVT14_ND2_CDC_1
*C2_R1_C1 1.761e-01 2.192e-02 1.761e-01 
*LOADS
*RC gte_x_5/U87:A2 7.722e-03
*END

*R_NET gte_x_5/n101 4.631e-01
*DRIVER gte_x_5/U73:X
*CELL SAEDRVT14_NR2_1
*C2_R1_C1 2.316e-01 5.002e-02 2.316e-01 
*LOADS
*RC gte_x_5/U72:A1 5.433e-03
*RC gte_x_5/U87:A1 6.149e-03
*END

*R_NET gte_x_5/n102 1.816e-01
*DRIVER gte_x_5/U87:X
*CELL SAEDRVT14_OAI21_0P5
*C2_R1_C1 9.080e-02 2.192e-02 9.080e-02 
*LOADS
*RC gte_x_5/U88:B 3.981e-03
*END

*R_NET gte_x_5/n103 3.023e-01
*DRIVER gte_x_5/U72:X
*CELL SAEDLVT14_NR2_MM_0P5
*C2_R1_C1 1.512e-01 2.192e-02 1.512e-01 
*LOADS
*RC gte_x_5/U88:A2 6.628e-03
*END

*R_NET gte_x_5/n104 2.475e-01
*DRIVER gte_x_5/U83:X
*CELL SAEDRVT14_OAI21_0P5
*C2_R1_C1 1.238e-01 2.192e-02 1.238e-01 
*LOADS
*RC gte_x_5/U88:A1 5.427e-03
*END

*R_NET gte_x_5/n105 2.156e-01
*DRIVER gte_x_5/U90:X
*CELL SAEDRVT14_NR2_1
*C2_R1_C1 1.078e-01 2.192e-02 1.078e-01 
*LOADS
*RC gte_x_5/U79:A2 4.727e-03
*END

*R_NET gte_x_5/n106 2.156e-01
*DRIVER gte_x_5/U69:X
*CELL SAEDRVT14_NR2_1
*C2_R1_C1 1.078e-01 2.192e-02 1.078e-01 
*LOADS
*RC gte_x_5/U74:A2 4.727e-03
*END

*R_NET gte_x_5/n107 3.211e-01
*DRIVER gte_x_5/U74:X
*CELL SAEDLVT14_NR2_MM_0P5
*C2_R1_C1 1.606e-01 2.192e-02 1.606e-01 
*LOADS
*RC gte_x_5/U94:A1 7.040e-03
*END

*R_NET gte_x_5/n108 4.177e-01
*DRIVER gte_x_5/U92:X
*CELL SAEDRVT14_INV_0P5
*C2_R1_C1 2.088e-01 5.002e-02 2.088e-01 
*LOADS
*RC gte_x_5/U69:A1 4.814e-03
*RC gte_x_5/U68:A2 6.071e-03
*END

*R_NET gte_x_5/n109 4.177e-01
*DRIVER gte_x_5/U93:X
*CELL SAEDRVT14_INV_0P5
*C2_R1_C1 2.088e-01 5.002e-02 2.088e-01 
*LOADS
*RC gte_x_5/U75:A1 4.814e-03
*RC gte_x_5/U95:A2 6.071e-03
*END

*R_NET gte_x_5/n110 1.789e-01
*DRIVER gte_x_5/U95:X
*CELL SAEDRVT14_ND2_CDC_1
*C2_R1_C1 8.947e-02 2.192e-02 8.947e-02 
*LOADS
*RC gte_x_5/U96:B 3.923e-03
*END

*R_NET gte_x_5/n111 3.522e-01
*DRIVER gte_x_5/U68:X
*CELL SAEDRVT14_ND2_CDC_1
*C2_R1_C1 1.761e-01 2.192e-02 1.761e-01 
*LOADS
*RC gte_x_5/U96:A2 7.722e-03
*END

*R_NET gte_x_5/n112 4.631e-01
*DRIVER gte_x_5/U75:X
*CELL SAEDRVT14_NR2_1
*C2_R1_C1 2.316e-01 5.002e-02 2.316e-01 
*LOADS
*RC gte_x_5/U74:A1 5.433e-03
*RC gte_x_5/U96:A1 6.149e-03
*END

*R_NET gte_x_5/n113 4.177e-01
*DRIVER gte_x_5/U89:X
*CELL SAEDRVT14_INV_0P5
*C2_R1_C1 2.088e-01 5.002e-02 2.088e-01 
*LOADS
*RC gte_x_5/U90:A1 4.814e-03
*RC gte_x_5/U97:A2 6.071e-03
*END

*R_NET gte_x_5/n114 4.177e-01
*DRIVER gte_x_5/U91:X
*CELL SAEDRVT14_INV_0P5
*C2_R1_C1 2.088e-01 5.002e-02 2.088e-01 
*LOADS
*RC gte_x_5/U80:A1 4.814e-03
*RC gte_x_5/U98:A2 6.071e-03
*END

*R_NET gte_x_5/n115 1.789e-01
*DRIVER gte_x_5/U98:X
*CELL SAEDRVT14_ND2_CDC_1
*C2_R1_C1 8.947e-02 2.192e-02 8.947e-02 
*LOADS
*RC gte_x_5/U99:B 3.923e-03
*END

*R_NET gte_x_5/n116 3.522e-01
*DRIVER gte_x_5/U97:X
*CELL SAEDRVT14_ND2_CDC_1
*C2_R1_C1 1.761e-01 2.192e-02 1.761e-01 
*LOADS
*RC gte_x_5/U99:A2 7.722e-03
*END

*R_NET gte_x_5/n117 4.631e-01
*DRIVER gte_x_5/U80:X
*CELL SAEDRVT14_NR2_1
*C2_R1_C1 2.316e-01 5.002e-02 2.316e-01 
*LOADS
*RC gte_x_5/U79:A1 5.433e-03
*RC gte_x_5/U99:A1 6.149e-03
*END

*R_NET gte_x_5/n118 1.816e-01
*DRIVER gte_x_5/U99:X
*CELL SAEDRVT14_OAI21_0P5
*C2_R1_C1 9.080e-02 2.192e-02 9.080e-02 
*LOADS
*RC gte_x_5/U100:B 3.981e-03
*END

*R_NET gte_x_5/n119 4.909e-01
*DRIVER gte_x_5/U79:X
*CELL SAEDLVT14_NR2_MM_0P5
*C2_R1_C1 2.454e-01 5.002e-02 2.454e-01 
*LOADS
*RC gte_x_5/U100:A1 6.206e-03
*RC gte_x_5/U94:A2 6.071e-03
*END

*R_NET gte_x_5/n120 3.023e-01
*DRIVER gte_x_5/U96:X
*CELL SAEDRVT14_OAI21_0P5
*C2_R1_C1 1.512e-01 2.192e-02 1.512e-01 
*LOADS
*RC gte_x_5/U100:A2 6.628e-03
*END

*R_NET gte_x_5/n121 1.789e-01
*DRIVER gte_x_5/U100:X
*CELL SAEDRVT14_AOI21_0P75
*C2_R1_C1 8.947e-02 2.192e-02 8.947e-02 
*LOADS
*RC gte_x_5/U101:B 3.923e-03
*END

*R_NET gte_x_5/n122 3.522e-01
*DRIVER gte_x_5/U94:X
*CELL SAEDRVT14_ND2_CDC_1
*C2_R1_C1 1.761e-01 2.192e-02 1.761e-01 
*LOADS
*RC gte_x_5/U101:A2 7.722e-03
*END

*R_NET gte_x_5/n123 2.453e-01
*DRIVER gte_x_5/U88:X
*CELL SAEDRVT14_AOI21_0P75
*C2_R1_C1 1.226e-01 2.192e-02 1.226e-01 
*LOADS
*RC gte_x_5/U101:A1 5.377e-03
*END

*R_NET gte_x_5/n124 2.156e-01
*DRIVER gte_x_5/U63:X
*CELL SAEDRVT14_NR2_1
*C2_R1_C1 1.078e-01 2.192e-02 1.078e-01 
*LOADS
*RC gte_x_5/U70:A2 4.727e-03
*END

*R_NET gte_x_5/n125 2.421e-01
*DRIVER gte_x_5/U70:X
*CELL SAEDLVT14_NR2_MM_0P5
*C2_R1_C1 1.211e-01 2.192e-02 1.211e-01 
*LOADS
*RC gte_x_5/U105:A2 5.308e-03
*END

*R_NET gte_x_5/n126 2.156e-01
*DRIVER gte_x_5/U105:X
*CELL SAEDRVT14_ND2_CDC_1
*C2_R1_C1 1.078e-01 2.192e-02 1.078e-01 
*LOADS
*RC gte_x_5/U76:A2 4.727e-03
*END

*R_NET gte_x_5/n127 4.177e-01
*DRIVER gte_x_5/U103:X
*CELL SAEDRVT14_INV_0P5
*C2_R1_C1 2.088e-01 5.002e-02 2.088e-01 
*LOADS
*RC gte_x_5/U63:A1 4.814e-03
*RC gte_x_5/U62:A2 6.071e-03
*END

*R_NET gte_x_5/n128 4.177e-01
*DRIVER gte_x_5/U104:X
*CELL SAEDRVT14_INV_0P5
*C2_R1_C1 2.088e-01 5.002e-02 2.088e-01 
*LOADS
*RC gte_x_5/U71:A1 4.814e-03
*RC gte_x_5/U107:A2 6.071e-03
*END

*R_NET gte_x_5/n129 1.789e-01
*DRIVER gte_x_5/U107:X
*CELL SAEDRVT14_ND2_CDC_1
*C2_R1_C1 8.947e-02 2.192e-02 8.947e-02 
*LOADS
*RC gte_x_5/U108:B 3.923e-03
*END

*R_NET gte_x_5/n130 3.522e-01
*DRIVER gte_x_5/U62:X
*CELL SAEDRVT14_ND2_CDC_1
*C2_R1_C1 1.761e-01 2.192e-02 1.761e-01 
*LOADS
*RC gte_x_5/U108:A2 7.722e-03
*END

*R_NET gte_x_5/n131 4.631e-01
*DRIVER gte_x_5/U71:X
*CELL SAEDRVT14_NR2_1
*C2_R1_C1 2.316e-01 5.002e-02 2.316e-01 
*LOADS
*RC gte_x_5/U70:A1 5.433e-03
*RC gte_x_5/U108:A1 6.149e-03
*END

*R_NET gte_x_5/n132 5.111e-01
*DRIVER gte_x_5/U102:X
*CELL SAEDRVT14_INV_0P5
*C2_R1_C1 2.556e-01 5.002e-02 2.556e-01 
*LOADS
*RC gte_x_5/U61:A2 7.374e-03
*RC gte_x_5/U78:A1 5.409e-03
*END

*R_NET gte_x_5/n133 1.816e-01
*DRIVER gte_x_5/U61:X
*CELL SAEDRVT14_AN2_MM_0P5
*C2_R1_C1 9.080e-02 2.192e-02 9.080e-02 
*LOADS
*RC gte_x_5/U109:B 3.981e-03
*END

*R_NET gte_x_5/n134 2.475e-01
*DRIVER gte_x_5/U108:X
*CELL SAEDRVT14_OAI21_0P5
*C2_R1_C1 1.238e-01 2.192e-02 1.238e-01 
*LOADS
*RC gte_x_5/U109:A1 5.427e-03
*END

*R_NET gte_x_5/n135 4.177e-01
*DRIVER gte_x_5/U106:X
*CELL SAEDRVT14_INV_0P5
*C2_R1_C1 2.088e-01 5.002e-02 2.088e-01 
*LOADS
*RC gte_x_5/U77:A1 4.814e-03
*RC gte_x_5/U110:A2 6.071e-03
*END

*R_NET gte_x_5/n136 1.789e-01
*DRIVER gte_x_5/U110:X
*CELL SAEDRVT14_ND2_CDC_1
*C2_R1_C1 8.947e-02 2.192e-02 8.947e-02 
*LOADS
*RC gte_x_5/U111:B 3.923e-03
*END

*R_NET gte_x_5/n137 4.631e-01
*DRIVER gte_x_5/U77:X
*CELL SAEDRVT14_NR2_1
*C2_R1_C1 2.316e-01 5.002e-02 2.316e-01 
*LOADS
*RC gte_x_5/U111:A1 6.149e-03
*RC gte_x_5/U76:A1 5.433e-03
*END

*R_NET gte_x_5/n138 3.522e-01
*DRIVER gte_x_5/U109:X
*CELL SAEDRVT14_AOI21_0P75
*C2_R1_C1 1.761e-01 2.192e-02 1.761e-01 
*LOADS
*RC gte_x_5/U111:A2 7.722e-03
*END

*R_NET gte_x_5/n139 1.816e-01
*DRIVER gte_x_5/U111:X
*CELL SAEDRVT14_OAI21_0P5
*C2_R1_C1 9.080e-02 2.192e-02 9.080e-02 
*LOADS
*RC gte_x_5/U112:B 3.981e-03
*END

*R_NET gte_x_5/n140 3.023e-01
*DRIVER gte_x_5/U76:X
*CELL SAEDLVT14_NR2_MM_0P5
*C2_R1_C1 1.512e-01 2.192e-02 1.512e-01 
*LOADS
*RC gte_x_5/U112:A2 6.628e-03
*END

*R_NET gte_x_5/n141 2.475e-01
*DRIVER gte_x_5/U101:X
*CELL SAEDRVT14_OAI21_0P5
*C2_R1_C1 1.238e-01 2.192e-02 1.238e-01 
*LOADS
*RC gte_x_5/U112:A1 5.427e-03
*END

*R_NET gte_x_4/n90 6.247e-01
*DRIVER gte_x_4/U78:X
*CELL SAEDRVT14_OR2_0P5
*C2_R1_C1 3.123e-01 5.002e-02 3.123e-01 
*LOADS
*RC gte_x_4/U105:A1 8.046e-03
*RC gte_x_4/U109:A2 7.576e-03
*END

*R_NET gte_x_4/n91 2.421e-01
*DRIVER gte_x_4/U82:X
*CELL SAEDRVT14_INV_0P5
*C2_R1_C1 1.211e-01 2.192e-02 1.211e-01 
*LOADS
*RC gte_x_4/U60:A2 5.308e-03
*END

*R_NET gte_x_4/n92 4.590e-01
*DRIVER gte_x_4/U81:X
*CELL SAEDRVT14_INV_0P5
*C2_R1_C1 2.295e-01 5.002e-02 2.295e-01 
*LOADS
*RC gte_x_4/U65:A2 5.407e-03
*RC gte_x_4/U64:A2 6.071e-03
*END

*R_NET gte_x_4/n93 1.789e-01
*DRIVER gte_x_4/U64:X
*CELL SAEDRVT14_ND2_CDC_1
*C2_R1_C1 8.947e-02 2.192e-02 8.947e-02 
*LOADS
*RC gte_x_4/U83:B 3.923e-03
*END

*R_NET gte_x_4/n94 3.522e-01
*DRIVER gte_x_4/U60:X
*CELL SAEDRVT14_ND2_CDC_1
*C2_R1_C1 1.761e-01 2.192e-02 1.761e-01 
*LOADS
*RC gte_x_4/U83:A2 7.722e-03
*END

*R_NET gte_x_4/n95 2.453e-01
*DRIVER gte_x_4/U65:X
*CELL SAEDLVT14_NR2_MM_0P5
*C2_R1_C1 1.226e-01 2.192e-02 1.226e-01 
*LOADS
*RC gte_x_4/U83:A1 5.377e-03
*END

*R_NET gte_x_4/n96 2.156e-01
*DRIVER gte_x_4/U67:X
*CELL SAEDRVT14_NR2_1
*C2_R1_C1 1.078e-01 2.192e-02 1.078e-01 
*LOADS
*RC gte_x_4/U72:A2 4.727e-03
*END

*R_NET gte_x_4/n97 4.177e-01
*DRIVER gte_x_4/U84:X
*CELL SAEDRVT14_INV_0P5
*C2_R1_C1 2.088e-01 5.002e-02 2.088e-01 
*LOADS
*RC gte_x_4/U67:A1 4.814e-03
*RC gte_x_4/U66:A2 6.071e-03
*END

*R_NET gte_x_4/n98 4.177e-01
*DRIVER gte_x_4/U85:X
*CELL SAEDRVT14_INV_0P5
*C2_R1_C1 2.088e-01 5.002e-02 2.088e-01 
*LOADS
*RC gte_x_4/U73:A1 4.814e-03
*RC gte_x_4/U86:A2 6.071e-03
*END

*R_NET gte_x_4/n99 1.789e-01
*DRIVER gte_x_4/U86:X
*CELL SAEDRVT14_ND2_CDC_1
*C2_R1_C1 8.947e-02 2.192e-02 8.947e-02 
*LOADS
*RC gte_x_4/U87:B 3.923e-03
*END

*R_NET gte_x_4/n100 3.522e-01
*DRIVER gte_x_4/U66:X
*CELL SAEDRVT14_ND2_CDC_1
*C2_R1_C1 1.761e-01 2.192e-02 1.761e-01 
*LOADS
*RC gte_x_4/U87:A2 7.722e-03
*END

*R_NET gte_x_4/n101 4.631e-01
*DRIVER gte_x_4/U73:X
*CELL SAEDRVT14_NR2_1
*C2_R1_C1 2.316e-01 5.002e-02 2.316e-01 
*LOADS
*RC gte_x_4/U72:A1 5.433e-03
*RC gte_x_4/U87:A1 6.149e-03
*END

*R_NET gte_x_4/n102 1.816e-01
*DRIVER gte_x_4/U87:X
*CELL SAEDRVT14_OAI21_0P5
*C2_R1_C1 9.080e-02 2.192e-02 9.080e-02 
*LOADS
*RC gte_x_4/U88:B 3.981e-03
*END

*R_NET gte_x_4/n103 3.023e-01
*DRIVER gte_x_4/U72:X
*CELL SAEDLVT14_NR2_MM_0P5
*C2_R1_C1 1.512e-01 2.192e-02 1.512e-01 
*LOADS
*RC gte_x_4/U88:A2 6.628e-03
*END

*R_NET gte_x_4/n104 2.475e-01
*DRIVER gte_x_4/U83:X
*CELL SAEDRVT14_OAI21_0P5
*C2_R1_C1 1.238e-01 2.192e-02 1.238e-01 
*LOADS
*RC gte_x_4/U88:A1 5.427e-03
*END

*R_NET gte_x_4/n105 2.156e-01
*DRIVER gte_x_4/U90:X
*CELL SAEDRVT14_NR2_1
*C2_R1_C1 1.078e-01 2.192e-02 1.078e-01 
*LOADS
*RC gte_x_4/U79:A2 4.727e-03
*END

*R_NET gte_x_4/n106 2.156e-01
*DRIVER gte_x_4/U69:X
*CELL SAEDRVT14_NR2_1
*C2_R1_C1 1.078e-01 2.192e-02 1.078e-01 
*LOADS
*RC gte_x_4/U74:A2 4.727e-03
*END

*R_NET gte_x_4/n107 3.211e-01
*DRIVER gte_x_4/U74:X
*CELL SAEDLVT14_NR2_MM_0P5
*C2_R1_C1 1.606e-01 2.192e-02 1.606e-01 
*LOADS
*RC gte_x_4/U94:A1 7.040e-03
*END

*R_NET gte_x_4/n108 4.177e-01
*DRIVER gte_x_4/U92:X
*CELL SAEDRVT14_INV_0P5
*C2_R1_C1 2.088e-01 5.002e-02 2.088e-01 
*LOADS
*RC gte_x_4/U69:A1 4.814e-03
*RC gte_x_4/U68:A2 6.071e-03
*END

*R_NET gte_x_4/n109 4.177e-01
*DRIVER gte_x_4/U93:X
*CELL SAEDRVT14_INV_0P5
*C2_R1_C1 2.088e-01 5.002e-02 2.088e-01 
*LOADS
*RC gte_x_4/U75:A1 4.814e-03
*RC gte_x_4/U95:A2 6.071e-03
*END

*R_NET gte_x_4/n110 1.789e-01
*DRIVER gte_x_4/U95:X
*CELL SAEDRVT14_ND2_CDC_1
*C2_R1_C1 8.947e-02 2.192e-02 8.947e-02 
*LOADS
*RC gte_x_4/U96:B 3.923e-03
*END

*R_NET gte_x_4/n111 3.522e-01
*DRIVER gte_x_4/U68:X
*CELL SAEDRVT14_ND2_CDC_1
*C2_R1_C1 1.761e-01 2.192e-02 1.761e-01 
*LOADS
*RC gte_x_4/U96:A2 7.722e-03
*END

*R_NET gte_x_4/n112 4.631e-01
*DRIVER gte_x_4/U75:X
*CELL SAEDRVT14_NR2_1
*C2_R1_C1 2.316e-01 5.002e-02 2.316e-01 
*LOADS
*RC gte_x_4/U74:A1 5.433e-03
*RC gte_x_4/U96:A1 6.149e-03
*END

*R_NET gte_x_4/n113 4.177e-01
*DRIVER gte_x_4/U89:X
*CELL SAEDRVT14_INV_0P5
*C2_R1_C1 2.088e-01 5.002e-02 2.088e-01 
*LOADS
*RC gte_x_4/U90:A1 4.814e-03
*RC gte_x_4/U97:A2 6.071e-03
*END

*R_NET gte_x_4/n114 4.177e-01
*DRIVER gte_x_4/U91:X
*CELL SAEDRVT14_INV_0P5
*C2_R1_C1 2.088e-01 5.002e-02 2.088e-01 
*LOADS
*RC gte_x_4/U80:A1 4.814e-03
*RC gte_x_4/U98:A2 6.071e-03
*END

*R_NET gte_x_4/n115 1.789e-01
*DRIVER gte_x_4/U98:X
*CELL SAEDRVT14_ND2_CDC_1
*C2_R1_C1 8.947e-02 2.192e-02 8.947e-02 
*LOADS
*RC gte_x_4/U99:B 3.923e-03
*END

*R_NET gte_x_4/n116 3.522e-01
*DRIVER gte_x_4/U97:X
*CELL SAEDRVT14_ND2_CDC_1
*C2_R1_C1 1.761e-01 2.192e-02 1.761e-01 
*LOADS
*RC gte_x_4/U99:A2 7.722e-03
*END

*R_NET gte_x_4/n117 4.631e-01
*DRIVER gte_x_4/U80:X
*CELL SAEDRVT14_NR2_1
*C2_R1_C1 2.316e-01 5.002e-02 2.316e-01 
*LOADS
*RC gte_x_4/U79:A1 5.433e-03
*RC gte_x_4/U99:A1 6.149e-03
*END

*R_NET gte_x_4/n118 1.816e-01
*DRIVER gte_x_4/U99:X
*CELL SAEDRVT14_OAI21_0P5
*C2_R1_C1 9.080e-02 2.192e-02 9.080e-02 
*LOADS
*RC gte_x_4/U100:B 3.981e-03
*END

*R_NET gte_x_4/n119 4.909e-01
*DRIVER gte_x_4/U79:X
*CELL SAEDLVT14_NR2_MM_0P5
*C2_R1_C1 2.454e-01 5.002e-02 2.454e-01 
*LOADS
*RC gte_x_4/U100:A1 6.206e-03
*RC gte_x_4/U94:A2 6.071e-03
*END

*R_NET gte_x_4/n120 3.023e-01
*DRIVER gte_x_4/U96:X
*CELL SAEDRVT14_OAI21_0P5
*C2_R1_C1 1.512e-01 2.192e-02 1.512e-01 
*LOADS
*RC gte_x_4/U100:A2 6.628e-03
*END

*R_NET gte_x_4/n121 1.789e-01
*DRIVER gte_x_4/U100:X
*CELL SAEDRVT14_AOI21_0P75
*C2_R1_C1 8.947e-02 2.192e-02 8.947e-02 
*LOADS
*RC gte_x_4/U101:B 3.923e-03
*END

*R_NET gte_x_4/n122 3.522e-01
*DRIVER gte_x_4/U94:X
*CELL SAEDRVT14_ND2_CDC_1
*C2_R1_C1 1.761e-01 2.192e-02 1.761e-01 
*LOADS
*RC gte_x_4/U101:A2 7.722e-03
*END

*R_NET gte_x_4/n123 2.453e-01
*DRIVER gte_x_4/U88:X
*CELL SAEDRVT14_AOI21_0P75
*C2_R1_C1 1.226e-01 2.192e-02 1.226e-01 
*LOADS
*RC gte_x_4/U101:A1 5.377e-03
*END

*R_NET gte_x_4/n124 2.156e-01
*DRIVER gte_x_4/U63:X
*CELL SAEDRVT14_NR2_1
*C2_R1_C1 1.078e-01 2.192e-02 1.078e-01 
*LOADS
*RC gte_x_4/U70:A2 4.727e-03
*END

*R_NET gte_x_4/n125 2.421e-01
*DRIVER gte_x_4/U70:X
*CELL SAEDLVT14_NR2_MM_0P5
*C2_R1_C1 1.211e-01 2.192e-02 1.211e-01 
*LOADS
*RC gte_x_4/U105:A2 5.308e-03
*END

*R_NET gte_x_4/n126 2.156e-01
*DRIVER gte_x_4/U105:X
*CELL SAEDRVT14_ND2_CDC_1
*C2_R1_C1 1.078e-01 2.192e-02 1.078e-01 
*LOADS
*RC gte_x_4/U76:A2 4.727e-03
*END

*R_NET gte_x_4/n127 4.177e-01
*DRIVER gte_x_4/U103:X
*CELL SAEDRVT14_INV_0P5
*C2_R1_C1 2.088e-01 5.002e-02 2.088e-01 
*LOADS
*RC gte_x_4/U63:A1 4.814e-03
*RC gte_x_4/U62:A2 6.071e-03
*END

*R_NET gte_x_4/n128 4.177e-01
*DRIVER gte_x_4/U104:X
*CELL SAEDRVT14_INV_0P5
*C2_R1_C1 2.088e-01 5.002e-02 2.088e-01 
*LOADS
*RC gte_x_4/U71:A1 4.814e-03
*RC gte_x_4/U107:A2 6.071e-03
*END

*R_NET gte_x_4/n129 1.789e-01
*DRIVER gte_x_4/U107:X
*CELL SAEDRVT14_ND2_CDC_1
*C2_R1_C1 8.947e-02 2.192e-02 8.947e-02 
*LOADS
*RC gte_x_4/U108:B 3.923e-03
*END

*R_NET gte_x_4/n130 3.522e-01
*DRIVER gte_x_4/U62:X
*CELL SAEDRVT14_ND2_CDC_1
*C2_R1_C1 1.761e-01 2.192e-02 1.761e-01 
*LOADS
*RC gte_x_4/U108:A2 7.722e-03
*END

*R_NET gte_x_4/n131 4.631e-01
*DRIVER gte_x_4/U71:X
*CELL SAEDRVT14_NR2_1
*C2_R1_C1 2.316e-01 5.002e-02 2.316e-01 
*LOADS
*RC gte_x_4/U70:A1 5.433e-03
*RC gte_x_4/U108:A1 6.149e-03
*END

*R_NET gte_x_4/n132 5.111e-01
*DRIVER gte_x_4/U102:X
*CELL SAEDRVT14_INV_0P5
*C2_R1_C1 2.556e-01 5.002e-02 2.556e-01 
*LOADS
*RC gte_x_4/U61:A2 7.374e-03
*RC gte_x_4/U78:A1 5.409e-03
*END

*R_NET gte_x_4/n133 1.816e-01
*DRIVER gte_x_4/U61:X
*CELL SAEDRVT14_AN2_MM_0P5
*C2_R1_C1 9.080e-02 2.192e-02 9.080e-02 
*LOADS
*RC gte_x_4/U109:B 3.981e-03
*END

*R_NET gte_x_4/n134 2.475e-01
*DRIVER gte_x_4/U108:X
*CELL SAEDRVT14_OAI21_0P5
*C2_R1_C1 1.238e-01 2.192e-02 1.238e-01 
*LOADS
*RC gte_x_4/U109:A1 5.427e-03
*END

*R_NET gte_x_4/n135 4.177e-01
*DRIVER gte_x_4/U106:X
*CELL SAEDRVT14_INV_0P5
*C2_R1_C1 2.088e-01 5.002e-02 2.088e-01 
*LOADS
*RC gte_x_4/U77:A1 4.814e-03
*RC gte_x_4/U110:A2 6.071e-03
*END

*R_NET gte_x_4/n136 1.789e-01
*DRIVER gte_x_4/U110:X
*CELL SAEDRVT14_ND2_CDC_1
*C2_R1_C1 8.947e-02 2.192e-02 8.947e-02 
*LOADS
*RC gte_x_4/U111:B 3.923e-03
*END

*R_NET gte_x_4/n137 4.631e-01
*DRIVER gte_x_4/U77:X
*CELL SAEDRVT14_NR2_1
*C2_R1_C1 2.316e-01 5.002e-02 2.316e-01 
*LOADS
*RC gte_x_4/U111:A1 6.149e-03
*RC gte_x_4/U76:A1 5.433e-03
*END

*R_NET gte_x_4/n138 3.522e-01
*DRIVER gte_x_4/U109:X
*CELL SAEDRVT14_AOI21_0P75
*C2_R1_C1 1.761e-01 2.192e-02 1.761e-01 
*LOADS
*RC gte_x_4/U111:A2 7.722e-03
*END

*R_NET gte_x_4/n139 1.816e-01
*DRIVER gte_x_4/U111:X
*CELL SAEDRVT14_OAI21_0P5
*C2_R1_C1 9.080e-02 2.192e-02 9.080e-02 
*LOADS
*RC gte_x_4/U112:B 3.981e-03
*END

*R_NET gte_x_4/n140 3.023e-01
*DRIVER gte_x_4/U76:X
*CELL SAEDLVT14_NR2_MM_0P5
*C2_R1_C1 1.512e-01 2.192e-02 1.512e-01 
*LOADS
*RC gte_x_4/U112:A2 6.628e-03
*END

*R_NET gte_x_4/n141 2.475e-01
*DRIVER gte_x_4/U101:X
*CELL SAEDRVT14_OAI21_0P5
*C2_R1_C1 1.238e-01 2.192e-02 1.238e-01 
*LOADS
*RC gte_x_4/U112:A1 5.427e-03
*END

*R_NET gte_x_3/n90 6.247e-01
*DRIVER gte_x_3/U78:X
*CELL SAEDRVT14_OR2_0P5
*C2_R1_C1 3.123e-01 5.002e-02 3.123e-01 
*LOADS
*RC gte_x_3/U105:A1 8.046e-03
*RC gte_x_3/U109:A2 7.576e-03
*END

*R_NET gte_x_3/n91 2.421e-01
*DRIVER gte_x_3/U82:X
*CELL SAEDRVT14_INV_0P5
*C2_R1_C1 1.211e-01 2.192e-02 1.211e-01 
*LOADS
*RC gte_x_3/U60:A2 5.308e-03
*END

*R_NET gte_x_3/n92 4.590e-01
*DRIVER gte_x_3/U81:X
*CELL SAEDRVT14_INV_0P5
*C2_R1_C1 2.295e-01 5.002e-02 2.295e-01 
*LOADS
*RC gte_x_3/U65:A2 5.407e-03
*RC gte_x_3/U64:A2 6.071e-03
*END

*R_NET gte_x_3/n93 1.789e-01
*DRIVER gte_x_3/U64:X
*CELL SAEDRVT14_ND2_CDC_1
*C2_R1_C1 8.947e-02 2.192e-02 8.947e-02 
*LOADS
*RC gte_x_3/U83:B 3.923e-03
*END

*R_NET gte_x_3/n94 3.522e-01
*DRIVER gte_x_3/U60:X
*CELL SAEDRVT14_ND2_CDC_1
*C2_R1_C1 1.761e-01 2.192e-02 1.761e-01 
*LOADS
*RC gte_x_3/U83:A2 7.722e-03
*END

*R_NET gte_x_3/n95 2.453e-01
*DRIVER gte_x_3/U65:X
*CELL SAEDLVT14_NR2_MM_0P5
*C2_R1_C1 1.226e-01 2.192e-02 1.226e-01 
*LOADS
*RC gte_x_3/U83:A1 5.377e-03
*END

*R_NET gte_x_3/n96 2.156e-01
*DRIVER gte_x_3/U67:X
*CELL SAEDRVT14_NR2_1
*C2_R1_C1 1.078e-01 2.192e-02 1.078e-01 
*LOADS
*RC gte_x_3/U72:A2 4.727e-03
*END

*R_NET gte_x_3/n97 4.177e-01
*DRIVER gte_x_3/U84:X
*CELL SAEDRVT14_INV_0P5
*C2_R1_C1 2.088e-01 5.002e-02 2.088e-01 
*LOADS
*RC gte_x_3/U67:A1 4.814e-03
*RC gte_x_3/U66:A2 6.071e-03
*END

*R_NET gte_x_3/n98 4.177e-01
*DRIVER gte_x_3/U85:X
*CELL SAEDRVT14_INV_0P5
*C2_R1_C1 2.088e-01 5.002e-02 2.088e-01 
*LOADS
*RC gte_x_3/U73:A1 4.814e-03
*RC gte_x_3/U86:A2 6.071e-03
*END

*R_NET gte_x_3/n99 1.789e-01
*DRIVER gte_x_3/U86:X
*CELL SAEDRVT14_ND2_CDC_1
*C2_R1_C1 8.947e-02 2.192e-02 8.947e-02 
*LOADS
*RC gte_x_3/U87:B 3.923e-03
*END

*R_NET gte_x_3/n100 3.522e-01
*DRIVER gte_x_3/U66:X
*CELL SAEDRVT14_ND2_CDC_1
*C2_R1_C1 1.761e-01 2.192e-02 1.761e-01 
*LOADS
*RC gte_x_3/U87:A2 7.722e-03
*END

*R_NET gte_x_3/n101 4.631e-01
*DRIVER gte_x_3/U73:X
*CELL SAEDRVT14_NR2_1
*C2_R1_C1 2.316e-01 5.002e-02 2.316e-01 
*LOADS
*RC gte_x_3/U72:A1 5.433e-03
*RC gte_x_3/U87:A1 6.149e-03
*END

*R_NET gte_x_3/n102 1.816e-01
*DRIVER gte_x_3/U87:X
*CELL SAEDRVT14_OAI21_0P5
*C2_R1_C1 9.080e-02 2.192e-02 9.080e-02 
*LOADS
*RC gte_x_3/U88:B 3.981e-03
*END

*R_NET gte_x_3/n103 3.023e-01
*DRIVER gte_x_3/U72:X
*CELL SAEDLVT14_NR2_MM_0P5
*C2_R1_C1 1.512e-01 2.192e-02 1.512e-01 
*LOADS
*RC gte_x_3/U88:A2 6.628e-03
*END

*R_NET gte_x_3/n104 2.475e-01
*DRIVER gte_x_3/U83:X
*CELL SAEDRVT14_OAI21_0P5
*C2_R1_C1 1.238e-01 2.192e-02 1.238e-01 
*LOADS
*RC gte_x_3/U88:A1 5.427e-03
*END

*R_NET gte_x_3/n105 2.156e-01
*DRIVER gte_x_3/U90:X
*CELL SAEDRVT14_NR2_1
*C2_R1_C1 1.078e-01 2.192e-02 1.078e-01 
*LOADS
*RC gte_x_3/U79:A2 4.727e-03
*END

*R_NET gte_x_3/n106 2.156e-01
*DRIVER gte_x_3/U69:X
*CELL SAEDRVT14_NR2_1
*C2_R1_C1 1.078e-01 2.192e-02 1.078e-01 
*LOADS
*RC gte_x_3/U74:A2 4.727e-03
*END

*R_NET gte_x_3/n107 3.211e-01
*DRIVER gte_x_3/U74:X
*CELL SAEDLVT14_NR2_MM_0P5
*C2_R1_C1 1.606e-01 2.192e-02 1.606e-01 
*LOADS
*RC gte_x_3/U94:A1 7.040e-03
*END

*R_NET gte_x_3/n108 4.177e-01
*DRIVER gte_x_3/U92:X
*CELL SAEDRVT14_INV_0P5
*C2_R1_C1 2.088e-01 5.002e-02 2.088e-01 
*LOADS
*RC gte_x_3/U69:A1 4.814e-03
*RC gte_x_3/U68:A2 6.071e-03
*END

*R_NET gte_x_3/n109 4.177e-01
*DRIVER gte_x_3/U93:X
*CELL SAEDRVT14_INV_0P5
*C2_R1_C1 2.088e-01 5.002e-02 2.088e-01 
*LOADS
*RC gte_x_3/U75:A1 4.814e-03
*RC gte_x_3/U95:A2 6.071e-03
*END

*R_NET gte_x_3/n110 1.789e-01
*DRIVER gte_x_3/U95:X
*CELL SAEDRVT14_ND2_CDC_1
*C2_R1_C1 8.947e-02 2.192e-02 8.947e-02 
*LOADS
*RC gte_x_3/U96:B 3.923e-03
*END

*R_NET gte_x_3/n111 3.522e-01
*DRIVER gte_x_3/U68:X
*CELL SAEDRVT14_ND2_CDC_1
*C2_R1_C1 1.761e-01 2.192e-02 1.761e-01 
*LOADS
*RC gte_x_3/U96:A2 7.722e-03
*END

*R_NET gte_x_3/n112 4.631e-01
*DRIVER gte_x_3/U75:X
*CELL SAEDRVT14_NR2_1
*C2_R1_C1 2.316e-01 5.002e-02 2.316e-01 
*LOADS
*RC gte_x_3/U74:A1 5.433e-03
*RC gte_x_3/U96:A1 6.149e-03
*END

*R_NET gte_x_3/n113 4.177e-01
*DRIVER gte_x_3/U89:X
*CELL SAEDRVT14_INV_0P5
*C2_R1_C1 2.088e-01 5.002e-02 2.088e-01 
*LOADS
*RC gte_x_3/U90:A1 4.814e-03
*RC gte_x_3/U97:A2 6.071e-03
*END

*R_NET gte_x_3/n114 4.177e-01
*DRIVER gte_x_3/U91:X
*CELL SAEDRVT14_INV_0P5
*C2_R1_C1 2.088e-01 5.002e-02 2.088e-01 
*LOADS
*RC gte_x_3/U80:A1 4.814e-03
*RC gte_x_3/U98:A2 6.071e-03
*END

*R_NET gte_x_3/n115 1.789e-01
*DRIVER gte_x_3/U98:X
*CELL SAEDRVT14_ND2_CDC_1
*C2_R1_C1 8.947e-02 2.192e-02 8.947e-02 
*LOADS
*RC gte_x_3/U99:B 3.923e-03
*END

*R_NET gte_x_3/n116 3.522e-01
*DRIVER gte_x_3/U97:X
*CELL SAEDRVT14_ND2_CDC_1
*C2_R1_C1 1.761e-01 2.192e-02 1.761e-01 
*LOADS
*RC gte_x_3/U99:A2 7.722e-03
*END

*R_NET gte_x_3/n117 4.631e-01
*DRIVER gte_x_3/U80:X
*CELL SAEDRVT14_NR2_1
*C2_R1_C1 2.316e-01 5.002e-02 2.316e-01 
*LOADS
*RC gte_x_3/U79:A1 5.433e-03
*RC gte_x_3/U99:A1 6.149e-03
*END

*R_NET gte_x_3/n118 1.816e-01
*DRIVER gte_x_3/U99:X
*CELL SAEDRVT14_OAI21_0P5
*C2_R1_C1 9.080e-02 2.192e-02 9.080e-02 
*LOADS
*RC gte_x_3/U100:B 3.981e-03
*END

*R_NET gte_x_3/n119 4.909e-01
*DRIVER gte_x_3/U79:X
*CELL SAEDLVT14_NR2_MM_0P5
*C2_R1_C1 2.454e-01 5.002e-02 2.454e-01 
*LOADS
*RC gte_x_3/U100:A1 6.206e-03
*RC gte_x_3/U94:A2 6.071e-03
*END

*R_NET gte_x_3/n120 3.023e-01
*DRIVER gte_x_3/U96:X
*CELL SAEDRVT14_OAI21_0P5
*C2_R1_C1 1.512e-01 2.192e-02 1.512e-01 
*LOADS
*RC gte_x_3/U100:A2 6.628e-03
*END

*R_NET gte_x_3/n121 1.789e-01
*DRIVER gte_x_3/U100:X
*CELL SAEDRVT14_AOI21_0P75
*C2_R1_C1 8.947e-02 2.192e-02 8.947e-02 
*LOADS
*RC gte_x_3/U101:B 3.923e-03
*END

*R_NET gte_x_3/n122 3.522e-01
*DRIVER gte_x_3/U94:X
*CELL SAEDRVT14_ND2_CDC_1
*C2_R1_C1 1.761e-01 2.192e-02 1.761e-01 
*LOADS
*RC gte_x_3/U101:A2 7.722e-03
*END

*R_NET gte_x_3/n123 2.453e-01
*DRIVER gte_x_3/U88:X
*CELL SAEDRVT14_AOI21_0P75
*C2_R1_C1 1.226e-01 2.192e-02 1.226e-01 
*LOADS
*RC gte_x_3/U101:A1 5.377e-03
*END

*R_NET gte_x_3/n124 2.156e-01
*DRIVER gte_x_3/U63:X
*CELL SAEDRVT14_NR2_1
*C2_R1_C1 1.078e-01 2.192e-02 1.078e-01 
*LOADS
*RC gte_x_3/U70:A2 4.727e-03
*END

*R_NET gte_x_3/n125 2.421e-01
*DRIVER gte_x_3/U70:X
*CELL SAEDLVT14_NR2_MM_0P5
*C2_R1_C1 1.211e-01 2.192e-02 1.211e-01 
*LOADS
*RC gte_x_3/U105:A2 5.308e-03
*END

*R_NET gte_x_3/n126 2.156e-01
*DRIVER gte_x_3/U105:X
*CELL SAEDRVT14_ND2_CDC_1
*C2_R1_C1 1.078e-01 2.192e-02 1.078e-01 
*LOADS
*RC gte_x_3/U76:A2 4.727e-03
*END

*R_NET gte_x_3/n127 4.177e-01
*DRIVER gte_x_3/U103:X
*CELL SAEDRVT14_INV_0P5
*C2_R1_C1 2.088e-01 5.002e-02 2.088e-01 
*LOADS
*RC gte_x_3/U63:A1 4.814e-03
*RC gte_x_3/U62:A2 6.071e-03
*END

*R_NET gte_x_3/n128 4.177e-01
*DRIVER gte_x_3/U104:X
*CELL SAEDRVT14_INV_0P5
*C2_R1_C1 2.088e-01 5.002e-02 2.088e-01 
*LOADS
*RC gte_x_3/U71:A1 4.814e-03
*RC gte_x_3/U107:A2 6.071e-03
*END

*R_NET gte_x_3/n129 1.789e-01
*DRIVER gte_x_3/U107:X
*CELL SAEDRVT14_ND2_CDC_1
*C2_R1_C1 8.947e-02 2.192e-02 8.947e-02 
*LOADS
*RC gte_x_3/U108:B 3.923e-03
*END

*R_NET gte_x_3/n130 3.522e-01
*DRIVER gte_x_3/U62:X
*CELL SAEDRVT14_ND2_CDC_1
*C2_R1_C1 1.761e-01 2.192e-02 1.761e-01 
*LOADS
*RC gte_x_3/U108:A2 7.722e-03
*END

*R_NET gte_x_3/n131 4.631e-01
*DRIVER gte_x_3/U71:X
*CELL SAEDRVT14_NR2_1
*C2_R1_C1 2.316e-01 5.002e-02 2.316e-01 
*LOADS
*RC gte_x_3/U70:A1 5.433e-03
*RC gte_x_3/U108:A1 6.149e-03
*END

*R_NET gte_x_3/n132 5.111e-01
*DRIVER gte_x_3/U102:X
*CELL SAEDRVT14_INV_0P5
*C2_R1_C1 2.556e-01 5.002e-02 2.556e-01 
*LOADS
*RC gte_x_3/U61:A2 7.374e-03
*RC gte_x_3/U78:A1 5.409e-03
*END

*R_NET gte_x_3/n133 1.816e-01
*DRIVER gte_x_3/U61:X
*CELL SAEDRVT14_AN2_MM_0P5
*C2_R1_C1 9.080e-02 2.192e-02 9.080e-02 
*LOADS
*RC gte_x_3/U109:B 3.981e-03
*END

*R_NET gte_x_3/n134 2.475e-01
*DRIVER gte_x_3/U108:X
*CELL SAEDRVT14_OAI21_0P5
*C2_R1_C1 1.238e-01 2.192e-02 1.238e-01 
*LOADS
*RC gte_x_3/U109:A1 5.427e-03
*END

*R_NET gte_x_3/n135 4.177e-01
*DRIVER gte_x_3/U106:X
*CELL SAEDRVT14_INV_0P5
*C2_R1_C1 2.088e-01 5.002e-02 2.088e-01 
*LOADS
*RC gte_x_3/U77:A1 4.814e-03
*RC gte_x_3/U110:A2 6.071e-03
*END

*R_NET gte_x_3/n136 1.789e-01
*DRIVER gte_x_3/U110:X
*CELL SAEDRVT14_ND2_CDC_1
*C2_R1_C1 8.947e-02 2.192e-02 8.947e-02 
*LOADS
*RC gte_x_3/U111:B 3.923e-03
*END

*R_NET gte_x_3/n137 4.631e-01
*DRIVER gte_x_3/U77:X
*CELL SAEDRVT14_NR2_1
*C2_R1_C1 2.316e-01 5.002e-02 2.316e-01 
*LOADS
*RC gte_x_3/U111:A1 6.149e-03
*RC gte_x_3/U76:A1 5.433e-03
*END

*R_NET gte_x_3/n138 3.522e-01
*DRIVER gte_x_3/U109:X
*CELL SAEDRVT14_AOI21_0P75
*C2_R1_C1 1.761e-01 2.192e-02 1.761e-01 
*LOADS
*RC gte_x_3/U111:A2 7.722e-03
*END

*R_NET gte_x_3/n139 1.816e-01
*DRIVER gte_x_3/U111:X
*CELL SAEDRVT14_OAI21_0P5
*C2_R1_C1 9.080e-02 2.192e-02 9.080e-02 
*LOADS
*RC gte_x_3/U112:B 3.981e-03
*END

*R_NET gte_x_3/n140 3.023e-01
*DRIVER gte_x_3/U76:X
*CELL SAEDLVT14_NR2_MM_0P5
*C2_R1_C1 1.512e-01 2.192e-02 1.512e-01 
*LOADS
*RC gte_x_3/U112:A2 6.628e-03
*END

*R_NET gte_x_3/n141 2.475e-01
*DRIVER gte_x_3/U101:X
*CELL SAEDRVT14_OAI21_0P5
*C2_R1_C1 1.238e-01 2.192e-02 1.238e-01 
*LOADS
*RC gte_x_3/U112:A1 5.427e-03
*END

*R_NET div_2/n1 2.581e-01
*DRIVER div_2/U5:X
*CELL SAEDRVT14_INV_0P5
*C2_R1_C1 1.291e-01 2.192e-02 1.291e-01 
*LOADS
*RC div_2/U1:A1 5.659e-03
*END

*R_NET div_2/n2 3.530e-01
*DRIVER div_2/U2:X
*CELL SAEDRVT14_NR2B_2
*C2_R1_C1 1.765e-01 5.002e-02 1.765e-01 
*LOADS
*RC div_2/U1:B1 4.847e-03
*RC div_2/U9:A 3.981e-03
*END

*R_NET div_2/n3 3.563e-01
*DRIVER div_2/U9:X
*CELL SAEDRVT14_INV_0P5
*C2_R1_C1 1.782e-01 2.192e-02 1.782e-01 
*LOADS
*RC div_2/U10:A2 7.812e-03
*END

*R_NET div_2/n4 3.607e-01
*DRIVER div_2/U8:X
*CELL SAEDRVT14_ND2_CDC_1
*C2_R1_C1 1.804e-01 2.192e-02 1.804e-01 
*LOADS
*RC div_2/U10:A1 7.909e-03
*END

*R_NET div_2/n5 1.789e-01
*DRIVER div_2/U10:X
*CELL SAEDRVT14_EN2_0P5
*C2_R1_C1 8.947e-02 2.192e-02 8.947e-02 
*LOADS
*RC div_2/U11:B 3.923e-03
*END

*R_NET div_2/n6 3.522e-01
*DRIVER div_2/U7:X
*CELL SAEDRVT14_INV_0P5
*C2_R1_C1 1.761e-01 2.192e-02 1.761e-01 
*LOADS
*RC div_2/U11:A2 7.722e-03
*END

*R_NET div_2/n7 6.026e-01
*DRIVER div_2/U6:X
*CELL SAEDRVT14_EN2_0P5
*C2_R1_C1 3.013e-01 5.002e-02 3.013e-01 
*LOADS
*RC div_2/U11:A1 6.149e-03
*RC div_2/U15:A2 8.927e-03
*END

*R_NET div_2/n8 3.607e-01
*DRIVER div_2/U14:X
*CELL SAEDRVT14_ND2_CDC_1
*C2_R1_C1 1.804e-01 2.192e-02 1.804e-01 
*LOADS
*RC div_2/U15:A1 7.909e-03
*END

*R_NET div_2/n9 1.789e-01
*DRIVER div_2/U15:X
*CELL SAEDRVT14_EN2_0P5
*C2_R1_C1 8.947e-02 2.192e-02 8.947e-02 
*LOADS
*RC div_2/U16:B 3.923e-03
*END

*R_NET div_2/n10 3.522e-01
*DRIVER div_2/U13:X
*CELL SAEDRVT14_INV_0P5
*C2_R1_C1 1.761e-01 2.192e-02 1.761e-01 
*LOADS
*RC div_2/U16:A2 7.722e-03
*END

*R_NET div_2/n11 6.026e-01
*DRIVER div_2/U12:X
*CELL SAEDRVT14_EN2_0P5
*C2_R1_C1 3.013e-01 5.002e-02 3.013e-01 
*LOADS
*RC div_2/U16:A1 6.149e-03
*RC div_2/U20:A2 8.927e-03
*END

*R_NET div_2/n12 3.607e-01
*DRIVER div_2/U19:X
*CELL SAEDRVT14_ND2_CDC_1
*C2_R1_C1 1.804e-01 2.192e-02 1.804e-01 
*LOADS
*RC div_2/U20:A1 7.909e-03
*END

*R_NET div_2/n13 1.789e-01
*DRIVER div_2/U20:X
*CELL SAEDRVT14_EN2_0P5
*C2_R1_C1 8.947e-02 2.192e-02 8.947e-02 
*LOADS
*RC div_2/U21:B 3.923e-03
*END

*R_NET div_2/n14 3.522e-01
*DRIVER div_2/U18:X
*CELL SAEDRVT14_INV_0P5
*C2_R1_C1 1.761e-01 2.192e-02 1.761e-01 
*LOADS
*RC div_2/U21:A2 7.722e-03
*END

*R_NET div_2/n15 6.026e-01
*DRIVER div_2/U17:X
*CELL SAEDRVT14_EN2_0P5
*C2_R1_C1 3.013e-01 5.002e-02 3.013e-01 
*LOADS
*RC div_2/U21:A1 6.149e-03
*RC div_2/U25:A2 8.927e-03
*END

*R_NET div_2/n16 3.607e-01
*DRIVER div_2/U24:X
*CELL SAEDRVT14_ND2_CDC_1
*C2_R1_C1 1.804e-01 2.192e-02 1.804e-01 
*LOADS
*RC div_2/U25:A1 7.909e-03
*END

*R_NET div_2/n17 1.789e-01
*DRIVER div_2/U25:X
*CELL SAEDRVT14_EN2_0P5
*C2_R1_C1 8.947e-02 2.192e-02 8.947e-02 
*LOADS
*RC div_2/U26:B 3.923e-03
*END

*R_NET div_2/n18 3.522e-01
*DRIVER div_2/U23:X
*CELL SAEDRVT14_INV_0P5
*C2_R1_C1 1.761e-01 2.192e-02 1.761e-01 
*LOADS
*RC div_2/U26:A2 7.722e-03
*END

*R_NET div_2/n19 6.026e-01
*DRIVER div_2/U22:X
*CELL SAEDRVT14_EN2_0P5
*C2_R1_C1 3.013e-01 5.002e-02 3.013e-01 
*LOADS
*RC div_2/U26:A1 6.149e-03
*RC div_2/U30:A2 8.927e-03
*END

*R_NET div_2/n20 3.607e-01
*DRIVER div_2/U29:X
*CELL SAEDRVT14_ND2_CDC_1
*C2_R1_C1 1.804e-01 2.192e-02 1.804e-01 
*LOADS
*RC div_2/U30:A1 7.909e-03
*END

*R_NET div_2/n21 1.789e-01
*DRIVER div_2/U30:X
*CELL SAEDRVT14_EN2_0P5
*C2_R1_C1 8.947e-02 2.192e-02 8.947e-02 
*LOADS
*RC div_2/U31:B 3.923e-03
*END

*R_NET div_2/n22 3.522e-01
*DRIVER div_2/U28:X
*CELL SAEDRVT14_INV_0P5
*C2_R1_C1 1.761e-01 2.192e-02 1.761e-01 
*LOADS
*RC div_2/U31:A2 7.722e-03
*END

*R_NET div_2/n23 6.026e-01
*DRIVER div_2/U27:X
*CELL SAEDRVT14_EN2_0P5
*C2_R1_C1 3.013e-01 5.002e-02 3.013e-01 
*LOADS
*RC div_2/U31:A1 6.149e-03
*RC div_2/U35:A2 8.927e-03
*END

*R_NET div_2/n24 3.607e-01
*DRIVER div_2/U34:X
*CELL SAEDRVT14_ND2_CDC_1
*C2_R1_C1 1.804e-01 2.192e-02 1.804e-01 
*LOADS
*RC div_2/U35:A1 7.909e-03
*END

*R_NET div_2/n25 1.789e-01
*DRIVER div_2/U35:X
*CELL SAEDRVT14_EN2_0P5
*C2_R1_C1 8.947e-02 2.192e-02 8.947e-02 
*LOADS
*RC div_2/U36:B 3.923e-03
*END

*R_NET div_2/n26 3.522e-01
*DRIVER div_2/U33:X
*CELL SAEDRVT14_INV_0P5
*C2_R1_C1 1.761e-01 2.192e-02 1.761e-01 
*LOADS
*RC div_2/U36:A2 7.722e-03
*END

*R_NET div_2/n27 6.026e-01
*DRIVER div_2/U32:X
*CELL SAEDRVT14_EN2_0P5
*C2_R1_C1 3.013e-01 5.002e-02 3.013e-01 
*LOADS
*RC div_2/U36:A1 6.149e-03
*RC div_2/U40:A2 8.927e-03
*END

*R_NET div_2/n28 3.607e-01
*DRIVER div_2/U39:X
*CELL SAEDRVT14_ND2_CDC_1
*C2_R1_C1 1.804e-01 2.192e-02 1.804e-01 
*LOADS
*RC div_2/U40:A1 7.909e-03
*END

*R_NET div_2/n29 1.789e-01
*DRIVER div_2/U40:X
*CELL SAEDRVT14_EN2_0P5
*C2_R1_C1 8.947e-02 2.192e-02 8.947e-02 
*LOADS
*RC div_2/U41:B 3.923e-03
*END

*R_NET div_2/n30 3.522e-01
*DRIVER div_2/U38:X
*CELL SAEDRVT14_INV_0P5
*C2_R1_C1 1.761e-01 2.192e-02 1.761e-01 
*LOADS
*RC div_2/U41:A2 7.722e-03
*END

*R_NET div_2/n31 6.026e-01
*DRIVER div_2/U37:X
*CELL SAEDRVT14_EN2_0P5
*C2_R1_C1 3.013e-01 5.002e-02 3.013e-01 
*LOADS
*RC div_2/U41:A1 6.149e-03
*RC div_2/U45:A2 8.927e-03
*END

*R_NET div_2/n32 3.607e-01
*DRIVER div_2/U44:X
*CELL SAEDRVT14_ND2_CDC_1
*C2_R1_C1 1.804e-01 2.192e-02 1.804e-01 
*LOADS
*RC div_2/U45:A1 7.909e-03
*END

*R_NET div_2/n33 1.789e-01
*DRIVER div_2/U45:X
*CELL SAEDRVT14_EN2_0P5
*C2_R1_C1 8.947e-02 2.192e-02 8.947e-02 
*LOADS
*RC div_2/U46:B 3.923e-03
*END

*R_NET div_2/n34 3.522e-01
*DRIVER div_2/U43:X
*CELL SAEDRVT14_INV_0P5
*C2_R1_C1 1.761e-01 2.192e-02 1.761e-01 
*LOADS
*RC div_2/U46:A2 7.722e-03
*END

*R_NET div_2/n35 6.026e-01
*DRIVER div_2/U42:X
*CELL SAEDRVT14_EN2_0P5
*C2_R1_C1 3.013e-01 5.002e-02 3.013e-01 
*LOADS
*RC div_2/U46:A1 6.149e-03
*RC div_2/U50:A2 8.927e-03
*END

*R_NET div_2/n36 3.607e-01
*DRIVER div_2/U49:X
*CELL SAEDRVT14_ND2_CDC_1
*C2_R1_C1 1.804e-01 2.192e-02 1.804e-01 
*LOADS
*RC div_2/U50:A1 7.909e-03
*END

*R_NET div_2/n37 1.789e-01
*DRIVER div_2/U50:X
*CELL SAEDRVT14_EN2_0P5
*C2_R1_C1 8.947e-02 2.192e-02 8.947e-02 
*LOADS
*RC div_2/U51:B 3.923e-03
*END

*R_NET div_2/n38 3.522e-01
*DRIVER div_2/U48:X
*CELL SAEDRVT14_INV_0P5
*C2_R1_C1 1.761e-01 2.192e-02 1.761e-01 
*LOADS
*RC div_2/U51:A2 7.722e-03
*END

*R_NET div_2/n39 6.026e-01
*DRIVER div_2/U47:X
*CELL SAEDRVT14_EN2_0P5
*C2_R1_C1 3.013e-01 5.002e-02 3.013e-01 
*LOADS
*RC div_2/U51:A1 6.149e-03
*RC div_2/U55:A2 8.927e-03
*END

*R_NET div_2/n40 3.607e-01
*DRIVER div_2/U54:X
*CELL SAEDRVT14_ND2_CDC_1
*C2_R1_C1 1.804e-01 2.192e-02 1.804e-01 
*LOADS
*RC div_2/U55:A1 7.909e-03
*END

*R_NET div_2/n41 1.789e-01
*DRIVER div_2/U55:X
*CELL SAEDRVT14_EN2_0P5
*C2_R1_C1 8.947e-02 2.192e-02 8.947e-02 
*LOADS
*RC div_2/U56:B 3.923e-03
*END

*R_NET div_2/n42 3.522e-01
*DRIVER div_2/U53:X
*CELL SAEDRVT14_INV_0P5
*C2_R1_C1 1.761e-01 2.192e-02 1.761e-01 
*LOADS
*RC div_2/U56:A2 7.722e-03
*END

*R_NET div_2/n43 6.026e-01
*DRIVER div_2/U52:X
*CELL SAEDRVT14_EN2_0P5
*C2_R1_C1 3.013e-01 5.002e-02 3.013e-01 
*LOADS
*RC div_2/U56:A1 6.149e-03
*RC div_2/U60:A2 8.927e-03
*END

*R_NET div_2/n44 3.607e-01
*DRIVER div_2/U59:X
*CELL SAEDRVT14_ND2_CDC_1
*C2_R1_C1 1.804e-01 2.192e-02 1.804e-01 
*LOADS
*RC div_2/U60:A1 7.909e-03
*END

*R_NET div_2/n45 1.789e-01
*DRIVER div_2/U60:X
*CELL SAEDRVT14_EN2_0P5
*C2_R1_C1 8.947e-02 2.192e-02 8.947e-02 
*LOADS
*RC div_2/U61:B 3.923e-03
*END

*R_NET div_2/n46 3.522e-01
*DRIVER div_2/U58:X
*CELL SAEDRVT14_INV_0P5
*C2_R1_C1 1.761e-01 2.192e-02 1.761e-01 
*LOADS
*RC div_2/U61:A2 7.722e-03
*END

*R_NET div_2/n47 6.026e-01
*DRIVER div_2/U57:X
*CELL SAEDRVT14_EN2_0P5
*C2_R1_C1 3.013e-01 5.002e-02 3.013e-01 
*LOADS
*RC div_2/U61:A1 6.149e-03
*RC div_2/U65:A2 8.927e-03
*END

*R_NET div_2/n48 3.607e-01
*DRIVER div_2/U64:X
*CELL SAEDRVT14_ND2_CDC_1
*C2_R1_C1 1.804e-01 2.192e-02 1.804e-01 
*LOADS
*RC div_2/U65:A1 7.909e-03
*END

*R_NET div_2/n49 1.789e-01
*DRIVER div_2/U65:X
*CELL SAEDRVT14_EN2_0P5
*C2_R1_C1 8.947e-02 2.192e-02 8.947e-02 
*LOADS
*RC div_2/U66:B 3.923e-03
*END

*R_NET div_2/n50 4.047e-01
*DRIVER div_2/U62:X
*CELL SAEDRVT14_EN2_0P5
*C2_R1_C1 2.023e-01 5.002e-02 2.023e-01 
*LOADS
*RC div_2/U66:A1 6.149e-03
*RC div_2/U67:A 3.981e-03
*END

*R_NET div_2/n51 5.630e-01
*DRIVER div_2/U63:X
*CELL SAEDRVT14_INV_0P5
*C2_R1_C1 2.815e-01 5.002e-02 2.815e-01 
*LOADS
*RC div_2/U4:B2 5.255e-03
*RC div_2/U66:A2 8.824e-03
*END

*R_NET div_2/n52 1.589e-01
*DRIVER div_2/U68:X
*CELL SAEDRVT14_NR2_1
*C2_R1_C1 7.945e-02 2.192e-02 7.945e-02 
*LOADS
*RC div_2/U4:B1 3.484e-03
*END

*R_NET div_2/n53 1.789e-01
*DRIVER div_2/U69:X
*CELL SAEDRVT14_ND2B_U_0P5
*C2_R1_C1 8.947e-02 2.192e-02 8.947e-02 
*LOADS
*RC div_2/U70:B 3.923e-03
*END

*R_NET div_2/n54 3.522e-01
*DRIVER div_2/U4:X
*CELL SAEDRVT14_OA2BB2_V1_0P5
*C2_R1_C1 1.761e-01 2.192e-02 1.761e-01 
*LOADS
*RC div_2/U70:A2 7.722e-03
*END

*R_NET div_2/n55 4.040e-01
*DRIVER div_2/U67:X
*CELL SAEDRVT14_INV_0P5
*C2_R1_C1 2.020e-01 5.002e-02 2.020e-01 
*LOADS
*RC div_2/U69:B 3.954e-03
*RC div_2/U70:A1 6.149e-03
*END

*R_NET div_1/n1 2.581e-01
*DRIVER div_1/U5:X
*CELL SAEDRVT14_INV_0P5
*C2_R1_C1 1.291e-01 2.192e-02 1.291e-01 
*LOADS
*RC div_1/U1:A1 5.659e-03
*END

*R_NET div_1/n2 3.530e-01
*DRIVER div_1/U2:X
*CELL SAEDRVT14_NR2B_2
*C2_R1_C1 1.765e-01 5.002e-02 1.765e-01 
*LOADS
*RC div_1/U1:B1 4.847e-03
*RC div_1/U9:A 3.981e-03
*END

*R_NET div_1/n3 3.563e-01
*DRIVER div_1/U9:X
*CELL SAEDRVT14_INV_0P5
*C2_R1_C1 1.782e-01 2.192e-02 1.782e-01 
*LOADS
*RC div_1/U10:A2 7.812e-03
*END

*R_NET div_1/n4 3.607e-01
*DRIVER div_1/U8:X
*CELL SAEDRVT14_ND2_CDC_1
*C2_R1_C1 1.804e-01 2.192e-02 1.804e-01 
*LOADS
*RC div_1/U10:A1 7.909e-03
*END

*R_NET div_1/n5 1.789e-01
*DRIVER div_1/U10:X
*CELL SAEDRVT14_EN2_0P5
*C2_R1_C1 8.947e-02 2.192e-02 8.947e-02 
*LOADS
*RC div_1/U11:B 3.923e-03
*END

*R_NET div_1/n6 3.522e-01
*DRIVER div_1/U7:X
*CELL SAEDRVT14_INV_0P5
*C2_R1_C1 1.761e-01 2.192e-02 1.761e-01 
*LOADS
*RC div_1/U11:A2 7.722e-03
*END

*R_NET div_1/n7 6.026e-01
*DRIVER div_1/U6:X
*CELL SAEDRVT14_EN2_0P5
*C2_R1_C1 3.013e-01 5.002e-02 3.013e-01 
*LOADS
*RC div_1/U11:A1 6.149e-03
*RC div_1/U15:A2 8.927e-03
*END

*R_NET div_1/n8 3.607e-01
*DRIVER div_1/U14:X
*CELL SAEDRVT14_ND2_CDC_1
*C2_R1_C1 1.804e-01 2.192e-02 1.804e-01 
*LOADS
*RC div_1/U15:A1 7.909e-03
*END

*R_NET div_1/n9 1.789e-01
*DRIVER div_1/U15:X
*CELL SAEDRVT14_EN2_0P5
*C2_R1_C1 8.947e-02 2.192e-02 8.947e-02 
*LOADS
*RC div_1/U16:B 3.923e-03
*END

*R_NET div_1/n10 3.522e-01
*DRIVER div_1/U13:X
*CELL SAEDRVT14_INV_0P5
*C2_R1_C1 1.761e-01 2.192e-02 1.761e-01 
*LOADS
*RC div_1/U16:A2 7.722e-03
*END

*R_NET div_1/n11 6.026e-01
*DRIVER div_1/U12:X
*CELL SAEDRVT14_EN2_0P5
*C2_R1_C1 3.013e-01 5.002e-02 3.013e-01 
*LOADS
*RC div_1/U16:A1 6.149e-03
*RC div_1/U20:A2 8.927e-03
*END

*R_NET div_1/n12 3.607e-01
*DRIVER div_1/U19:X
*CELL SAEDRVT14_ND2_CDC_1
*C2_R1_C1 1.804e-01 2.192e-02 1.804e-01 
*LOADS
*RC div_1/U20:A1 7.909e-03
*END

*R_NET div_1/n13 1.789e-01
*DRIVER div_1/U20:X
*CELL SAEDRVT14_EN2_0P5
*C2_R1_C1 8.947e-02 2.192e-02 8.947e-02 
*LOADS
*RC div_1/U21:B 3.923e-03
*END

*R_NET div_1/n14 3.522e-01
*DRIVER div_1/U18:X
*CELL SAEDRVT14_INV_0P5
*C2_R1_C1 1.761e-01 2.192e-02 1.761e-01 
*LOADS
*RC div_1/U21:A2 7.722e-03
*END

*R_NET div_1/n15 6.026e-01
*DRIVER div_1/U17:X
*CELL SAEDRVT14_EN2_0P5
*C2_R1_C1 3.013e-01 5.002e-02 3.013e-01 
*LOADS
*RC div_1/U21:A1 6.149e-03
*RC div_1/U25:A2 8.927e-03
*END

*R_NET div_1/n16 3.607e-01
*DRIVER div_1/U24:X
*CELL SAEDRVT14_ND2_CDC_1
*C2_R1_C1 1.804e-01 2.192e-02 1.804e-01 
*LOADS
*RC div_1/U25:A1 7.909e-03
*END

*R_NET div_1/n17 1.789e-01
*DRIVER div_1/U25:X
*CELL SAEDRVT14_EN2_0P5
*C2_R1_C1 8.947e-02 2.192e-02 8.947e-02 
*LOADS
*RC div_1/U26:B 3.923e-03
*END

*R_NET div_1/n18 3.522e-01
*DRIVER div_1/U23:X
*CELL SAEDRVT14_INV_0P5
*C2_R1_C1 1.761e-01 2.192e-02 1.761e-01 
*LOADS
*RC div_1/U26:A2 7.722e-03
*END

*R_NET div_1/n19 6.026e-01
*DRIVER div_1/U22:X
*CELL SAEDRVT14_EN2_0P5
*C2_R1_C1 3.013e-01 5.002e-02 3.013e-01 
*LOADS
*RC div_1/U26:A1 6.149e-03
*RC div_1/U30:A2 8.927e-03
*END

*R_NET div_1/n20 3.607e-01
*DRIVER div_1/U29:X
*CELL SAEDRVT14_ND2_CDC_1
*C2_R1_C1 1.804e-01 2.192e-02 1.804e-01 
*LOADS
*RC div_1/U30:A1 7.909e-03
*END

*R_NET div_1/n21 1.789e-01
*DRIVER div_1/U30:X
*CELL SAEDRVT14_EN2_0P5
*C2_R1_C1 8.947e-02 2.192e-02 8.947e-02 
*LOADS
*RC div_1/U31:B 3.923e-03
*END

*R_NET div_1/n22 3.522e-01
*DRIVER div_1/U28:X
*CELL SAEDRVT14_INV_0P5
*C2_R1_C1 1.761e-01 2.192e-02 1.761e-01 
*LOADS
*RC div_1/U31:A2 7.722e-03
*END

*R_NET div_1/n23 6.026e-01
*DRIVER div_1/U27:X
*CELL SAEDRVT14_EN2_0P5
*C2_R1_C1 3.013e-01 5.002e-02 3.013e-01 
*LOADS
*RC div_1/U31:A1 6.149e-03
*RC div_1/U35:A2 8.927e-03
*END

*R_NET div_1/n24 3.607e-01
*DRIVER div_1/U34:X
*CELL SAEDRVT14_ND2_CDC_1
*C2_R1_C1 1.804e-01 2.192e-02 1.804e-01 
*LOADS
*RC div_1/U35:A1 7.909e-03
*END

*R_NET div_1/n25 1.789e-01
*DRIVER div_1/U35:X
*CELL SAEDRVT14_EN2_0P5
*C2_R1_C1 8.947e-02 2.192e-02 8.947e-02 
*LOADS
*RC div_1/U36:B 3.923e-03
*END

*R_NET div_1/n26 3.522e-01
*DRIVER div_1/U33:X
*CELL SAEDRVT14_INV_0P5
*C2_R1_C1 1.761e-01 2.192e-02 1.761e-01 
*LOADS
*RC div_1/U36:A2 7.722e-03
*END

*R_NET div_1/n27 6.026e-01
*DRIVER div_1/U32:X
*CELL SAEDRVT14_EN2_0P5
*C2_R1_C1 3.013e-01 5.002e-02 3.013e-01 
*LOADS
*RC div_1/U36:A1 6.149e-03
*RC div_1/U40:A2 8.927e-03
*END

*R_NET div_1/n28 3.607e-01
*DRIVER div_1/U39:X
*CELL SAEDRVT14_ND2_CDC_1
*C2_R1_C1 1.804e-01 2.192e-02 1.804e-01 
*LOADS
*RC div_1/U40:A1 7.909e-03
*END

*R_NET div_1/n29 1.789e-01
*DRIVER div_1/U40:X
*CELL SAEDRVT14_EN2_0P5
*C2_R1_C1 8.947e-02 2.192e-02 8.947e-02 
*LOADS
*RC div_1/U41:B 3.923e-03
*END

*R_NET div_1/n30 3.522e-01
*DRIVER div_1/U38:X
*CELL SAEDRVT14_INV_0P5
*C2_R1_C1 1.761e-01 2.192e-02 1.761e-01 
*LOADS
*RC div_1/U41:A2 7.722e-03
*END

*R_NET div_1/n31 6.026e-01
*DRIVER div_1/U37:X
*CELL SAEDRVT14_EN2_0P5
*C2_R1_C1 3.013e-01 5.002e-02 3.013e-01 
*LOADS
*RC div_1/U41:A1 6.149e-03
*RC div_1/U45:A2 8.927e-03
*END

*R_NET div_1/n32 3.607e-01
*DRIVER div_1/U44:X
*CELL SAEDRVT14_ND2_CDC_1
*C2_R1_C1 1.804e-01 2.192e-02 1.804e-01 
*LOADS
*RC div_1/U45:A1 7.909e-03
*END

*R_NET div_1/n33 1.789e-01
*DRIVER div_1/U45:X
*CELL SAEDRVT14_EN2_0P5
*C2_R1_C1 8.947e-02 2.192e-02 8.947e-02 
*LOADS
*RC div_1/U46:B 3.923e-03
*END

*R_NET div_1/n34 3.522e-01
*DRIVER div_1/U43:X
*CELL SAEDRVT14_INV_0P5
*C2_R1_C1 1.761e-01 2.192e-02 1.761e-01 
*LOADS
*RC div_1/U46:A2 7.722e-03
*END

*R_NET div_1/n35 6.026e-01
*DRIVER div_1/U42:X
*CELL SAEDRVT14_EN2_0P5
*C2_R1_C1 3.013e-01 5.002e-02 3.013e-01 
*LOADS
*RC div_1/U46:A1 6.149e-03
*RC div_1/U50:A2 8.927e-03
*END

*R_NET div_1/n36 3.607e-01
*DRIVER div_1/U49:X
*CELL SAEDRVT14_ND2_CDC_1
*C2_R1_C1 1.804e-01 2.192e-02 1.804e-01 
*LOADS
*RC div_1/U50:A1 7.909e-03
*END

*R_NET div_1/n37 1.789e-01
*DRIVER div_1/U50:X
*CELL SAEDRVT14_EN2_0P5
*C2_R1_C1 8.947e-02 2.192e-02 8.947e-02 
*LOADS
*RC div_1/U51:B 3.923e-03
*END

*R_NET div_1/n38 3.522e-01
*DRIVER div_1/U48:X
*CELL SAEDRVT14_INV_0P5
*C2_R1_C1 1.761e-01 2.192e-02 1.761e-01 
*LOADS
*RC div_1/U51:A2 7.722e-03
*END

*R_NET div_1/n39 6.026e-01
*DRIVER div_1/U47:X
*CELL SAEDRVT14_EN2_0P5
*C2_R1_C1 3.013e-01 5.002e-02 3.013e-01 
*LOADS
*RC div_1/U51:A1 6.149e-03
*RC div_1/U55:A2 8.927e-03
*END

*R_NET div_1/n40 3.607e-01
*DRIVER div_1/U54:X
*CELL SAEDRVT14_ND2_CDC_1
*C2_R1_C1 1.804e-01 2.192e-02 1.804e-01 
*LOADS
*RC div_1/U55:A1 7.909e-03
*END

*R_NET div_1/n41 1.789e-01
*DRIVER div_1/U55:X
*CELL SAEDRVT14_EN2_0P5
*C2_R1_C1 8.947e-02 2.192e-02 8.947e-02 
*LOADS
*RC div_1/U56:B 3.923e-03
*END

*R_NET div_1/n42 3.522e-01
*DRIVER div_1/U53:X
*CELL SAEDRVT14_INV_0P5
*C2_R1_C1 1.761e-01 2.192e-02 1.761e-01 
*LOADS
*RC div_1/U56:A2 7.722e-03
*END

*R_NET div_1/n43 6.026e-01
*DRIVER div_1/U52:X
*CELL SAEDRVT14_EN2_0P5
*C2_R1_C1 3.013e-01 5.002e-02 3.013e-01 
*LOADS
*RC div_1/U56:A1 6.149e-03
*RC div_1/U60:A2 8.927e-03
*END

*R_NET div_1/n44 3.607e-01
*DRIVER div_1/U59:X
*CELL SAEDRVT14_ND2_CDC_1
*C2_R1_C1 1.804e-01 2.192e-02 1.804e-01 
*LOADS
*RC div_1/U60:A1 7.909e-03
*END

*R_NET div_1/n45 1.789e-01
*DRIVER div_1/U60:X
*CELL SAEDRVT14_EN2_0P5
*C2_R1_C1 8.947e-02 2.192e-02 8.947e-02 
*LOADS
*RC div_1/U61:B 3.923e-03
*END

*R_NET div_1/n46 3.522e-01
*DRIVER div_1/U58:X
*CELL SAEDRVT14_INV_0P5
*C2_R1_C1 1.761e-01 2.192e-02 1.761e-01 
*LOADS
*RC div_1/U61:A2 7.722e-03
*END

*R_NET div_1/n47 6.026e-01
*DRIVER div_1/U57:X
*CELL SAEDRVT14_EN2_0P5
*C2_R1_C1 3.013e-01 5.002e-02 3.013e-01 
*LOADS
*RC div_1/U61:A1 6.149e-03
*RC div_1/U65:A2 8.927e-03
*END

*R_NET div_1/n48 3.607e-01
*DRIVER div_1/U64:X
*CELL SAEDRVT14_ND2_CDC_1
*C2_R1_C1 1.804e-01 2.192e-02 1.804e-01 
*LOADS
*RC div_1/U65:A1 7.909e-03
*END

*R_NET div_1/n49 1.789e-01
*DRIVER div_1/U65:X
*CELL SAEDRVT14_EN2_0P5
*C2_R1_C1 8.947e-02 2.192e-02 8.947e-02 
*LOADS
*RC div_1/U66:B 3.923e-03
*END

*R_NET div_1/n50 4.047e-01
*DRIVER div_1/U62:X
*CELL SAEDRVT14_EN2_0P5
*C2_R1_C1 2.023e-01 5.002e-02 2.023e-01 
*LOADS
*RC div_1/U66:A1 6.149e-03
*RC div_1/U67:A 3.981e-03
*END

*R_NET div_1/n51 5.630e-01
*DRIVER div_1/U63:X
*CELL SAEDRVT14_INV_0P5
*C2_R1_C1 2.815e-01 5.002e-02 2.815e-01 
*LOADS
*RC div_1/U4:B2 5.255e-03
*RC div_1/U66:A2 8.824e-03
*END

*R_NET div_1/n52 1.589e-01
*DRIVER div_1/U68:X
*CELL SAEDRVT14_NR2_1
*C2_R1_C1 7.945e-02 2.192e-02 7.945e-02 
*LOADS
*RC div_1/U4:B1 3.484e-03
*END

*R_NET div_1/n53 1.789e-01
*DRIVER div_1/U69:X
*CELL SAEDRVT14_ND2B_U_0P5
*C2_R1_C1 8.947e-02 2.192e-02 8.947e-02 
*LOADS
*RC div_1/U70:B 3.923e-03
*END

*R_NET div_1/n54 3.522e-01
*DRIVER div_1/U4:X
*CELL SAEDRVT14_OA2BB2_V1_0P5
*C2_R1_C1 1.761e-01 2.192e-02 1.761e-01 
*LOADS
*RC div_1/U70:A2 7.722e-03
*END

*R_NET div_1/n55 4.040e-01
*DRIVER div_1/U67:X
*CELL SAEDRVT14_INV_0P5
*C2_R1_C1 2.020e-01 5.002e-02 2.020e-01 
*LOADS
*RC div_1/U69:B 3.954e-03
*RC div_1/U70:A1 6.149e-03
*END

*R_NET u_spi_master/add_x_2/n27 5.593e-01
*DRIVER u_spi_master/add_x_2/U12:CO
*CELL SAEDRVT14_ADDH_0P5
*C2_R1_C1 2.796e-01 2.192e-02 2.796e-01 
*LOADS
*RC u_spi_master/add_x_2/U11:A 1.226e-02
*END

*R_NET u_spi_master/add_x_2/n28 5.593e-01
*DRIVER u_spi_master/add_x_2/U11:CO
*CELL SAEDRVT14_ADDH_0P5
*C2_R1_C1 2.796e-01 2.192e-02 2.796e-01 
*LOADS
*RC u_spi_master/add_x_2/U13:A 1.226e-02
*END

*R_NET u_spi_master/add_x_2/n29 5.593e-01
*DRIVER u_spi_master/add_x_2/U13:CO
*CELL SAEDRVT14_ADDH_0P5
*C2_R1_C1 2.796e-01 2.192e-02 2.796e-01 
*LOADS
*RC u_spi_master/add_x_2/U14:A 1.226e-02
*END

*R_NET u_spi_master/add_x_2/n30 5.593e-01
*DRIVER u_spi_master/add_x_2/U14:CO
*CELL SAEDRVT14_ADDH_0P5
*C2_R1_C1 2.796e-01 2.192e-02 2.796e-01 
*LOADS
*RC u_spi_master/add_x_2/U15:A 1.226e-02
*END

*R_NET u_spi_master/add_x_2/n31 5.593e-01
*DRIVER u_spi_master/add_x_2/U15:CO
*CELL SAEDRVT14_ADDH_0P5
*C2_R1_C1 2.796e-01 2.192e-02 2.796e-01 
*LOADS
*RC u_spi_master/add_x_2/U16:A 1.226e-02
*END

*R_NET u_spi_master/add_x_2/n32 3.834e-01
*DRIVER u_spi_master/add_x_2/U16:CO
*CELL SAEDRVT14_ADDH_0P5
*C2_R1_C1 1.917e-01 2.192e-02 1.917e-01 
*LOADS
*RC u_spi_master/add_x_2/U17:A1 8.406e-03
*END
